Name: Unknown (0.72_130.0862m/z)
Charge: 1+
PrecursorMZ: 130.0862
Comment: 0.72_130.0862m/z
Num Peaks: 17
53.6355 3046.2886
55.4960 3402.9407
55.7103 3201.4434
56.0497 6433.3569
59.7572 2977.9343
69.8683 20291.8496
70.3909 3122.6899
73.3812 3332.1704
78.9969 2686.4690
84.0807 361234.5410
85.8871 3435.4321
93.0420 2741.6416
97.0071 3353.9409
97.1949 4869.6147
110.6620 3373.6768
116.8602 2699.1233
130.0863 21466.7031

Name: UMETA00055 (Ornithine)
Compound Id: UMETA00055
Precursor_type: [M+H]+
PrecursorMZ: 133.0971
Comment: 0.72_132.0898n
Formula: C5H12N2O2
Num Peaks: 6
59.7476 1580.9019
66.8654 2181.3228
69.8824 6437.4888
70.0651 7772.2739
84.8293 1730.9750
97.1961 3383.1648

Name: UMETA00042 (Lysine )
Compound Id: UMETA00042
Precursor_type: [M+H]+
PrecursorMZ: 147.1127
Comment: 0.72_147.1127m/z
Formula: C6H14N2O2
Num Peaks: 14
54.9180 1066.8691
57.1345 1003.4384
58.1060 1040.3244
65.0880 1020.7343
65.6533 1067.9550
66.5557 882.2378
69.8844 10702.1471
69.9510 6700.2721
84.0807 66265.7562
92.5682 934.3740
95.8138 958.4307
97.1940 3296.4232
130.0857 12505.0693
133.1128 993.3677

Name: Unknown (0.80_106.0498m/z)
Charge: 1+
PrecursorMZ: 106.0498
Comment: 0.80_106.0498m/z
Num Peaks: 28
52.0493 586.0905
54.6059 537.7152
57.7003 576.0953
58.9370 629.0368
60.0446 24017.1061
65.0386 577.4006
69.2440 576.9773
69.4664 528.9006
69.7282 3840.7139
69.8861 6436.8018
70.0654 628.3041
70.0929 608.8877
71.4731 580.7521
72.3674 574.5231
77.1738 517.2127
77.9710 539.8378
79.0540 9946.5106
82.2826 553.9065
82.6946 724.4784
88.0392 1558.5198
88.0755 1210.2579
89.9163 674.7159
91.0541 16616.2096
95.0489 3538.8223
97.1957 2260.5323
99.5431 541.6178
102.6285 587.3438
105.0695 2290.3949

Name: UMETA00032 (Histidine)
Compound Id: UMETA00032
Precursor_type: [M+H]+
PrecursorMZ: 156.0767
Comment: 0.80_155.0694n
Formula: C6H9N3O2
Num Peaks: 31
52.7545 511.9936
54.2505 481.2557
55.7069 548.2529
55.8602 501.5670
56.1528 501.0196
58.0653 5180.4220
61.6213 548.9624
62.9819 1509.8812
69.8669 3742.3542
69.9698 3773.1074
69.9752 3059.9870
70.0651 2775.4634
75.3942 572.5226
81.7717 1535.8871
82.0525 2497.5334
83.0602 21002.9967
93.0445 12210.5871
93.8422 538.3634
95.0602 69427.3334
97.1925 718.0387
97.1993 1407.7649
104.5572 513.0477
110.0710 1047890.0243
111.0549 2935.9036
111.0744 48913.3945
112.0866 1644.2267
125.5569 577.0484
129.4524 543.6016
140.1432 9484.8916
148.8046 579.9547
156.0764 243507.9095

Name: UMETA00080 (3-Methylhistidine / 1-Methylhistidine)
Compound Id: UMETA00080
Precursor_type: [M+H]+
PrecursorMZ: 170.0923
Comment: 0.81_169.0850n
Formula: C7H11N3O2
Num Peaks: 40
50.2574 9030.7467
52.5873 7164.2871
53.2948 4963.8408
53.7734 7310.7005
56.0498 33792.7129
61.0454 5464.9089
63.9643 5011.0599
66.9789 4972.4661
68.0494 150430.0911
69.7454 53818.5964
69.8681 47221.8490
70.4192 18661.6973
72.4474 7659.5189
81.0447 9656.3626
82.0651 6098.1999
83.0603 679337.2708
88.0813 6836.9935
88.8418 7355.3379
93.8673 7470.1732
94.0402 8290.4688
95.0602 24396.7350
96.0681 516436.0104
97.0760 221503.1615
97.1942 26429.8522
100.0756 69104.3685
109.0692 27153.6849
109.0759 882052.3503
109.0831 7183.9479
109.3000 5643.0801
110.9133 5776.2409
111.7034 7011.5703
115.8340 6659.4147
119.1898 7722.0111
124.0868 4574983.9010
125.0708 84156.1042
125.0820 16497.9896
126.1025 8953.4889
138.2776 6231.8639
152.4921 5248.4583
170.0928 128240.1224

Name: UMETA00011 (Arginine)
Compound Id: UMETA00011
Precursor_type: [M+H]+
PrecursorMZ: 175.1189
Comment: 0.81_174.1116n
Formula: C6H14N4O2
Num Peaks: 49
51.4792 19455.7995
55.2908 17812.9102
55.3638 31159.0833
60.0558 6528938.6810
61.0592 29688.0365
63.7143 19788.1445
64.0664 19602.3372
67.9481 19487.0742
69.7876 25819.9089
69.8861 290949.2188
70.0651 15616523.4167
70.1669 184619.4063
71.0492 28098.7214
71.0714 19297.2057
72.0807 851620.7500
75.9375 26913.4609
82.8037 25522.6615
83.1329 32492.2474
84.0807 931725.2917
88.0756 28772.1302
95.3845 22067.7682
97.0760 30554.2682
97.1957 173525.4206
97.8099 28477.8724
98.0011 29578.3047
106.8396 38108.1693
109.5542 28003.2396
112.0866 961161.4167
113.0709 25612.7422
114.1024 92715.1875
115.0865 58380.9948
116.0704 6534357.5260
123.8198 20979.0638
124.8091 29769.9583
125.7172 33193.2630
130.0865 338631.5469
130.0971 2747659.2917
130.1229 30591.4479
131.0788 37345.5260
136.3328 21707.8958
138.7436 18905.3555
141.0654 28676.2865
156.7888 30290.1484
157.1082 33566.2292
158.0922 1440923.6380
158.1043 38070.8646
170.1604 29640.9948
170.7235 31282.1589
175.1186 2561635.5990

Name: UMETA00037 (Homoserine / Threonine)
Compound Id: UMETA00037
Precursor_type: [M+H]+
PrecursorMZ: 120.0655
Comment: 0.82_120.0655m/z
Formula: C4H9NO3
Num Peaks: 25
50.9703 1921.4559
52.9773 2153.2550
54.1494 2023.2609
54.4268 2055.8306
56.0497 56114.6589
58.3022 2258.7961
65.0385 7224.2620
66.3012 2214.8595
68.5981 2199.8283
70.0014 9178.0537
70.2092 9960.1204
71.7004 2853.6367
74.0600 70779.9323
77.0389 4089.9831
84.0443 2030.1873
91.0542 5940.1239
94.5339 2185.2316
94.7391 2197.5166
95.0491 9321.1688
97.1946 2981.7900
102.0548 2827.2744
103.0538 8619.2544
109.8938 1810.0786
114.3742 2252.7871
115.9701 2186.3828

Name: Unknown (0.82_129.0425n)
Precursor_type: [M+H]+
PrecursorMZ: 130.0498
Comment: 0.82_129.0425n
Num Peaks: 23
56.0497 420783.9010
56.0810 15807.5443
56.3473 30760.6211
64.0961 16230.7266
65.0252 14724.9622
67.8972 15948.4401
70.1334 85700.5443
70.8207 32464.6068
70.8481 28043.7083
72.4245 16605.6211
79.9274 14646.1419
84.0443 5811489.7227
84.0499 24092.1615
85.0284 335728.0417
91.2599 16770.8607
94.7858 13892.1016
95.0130 19428.6393
95.2220 15909.2917
102.0413 17497.4036
102.0548 59219.0417
103.7420 16781.3281
128.0420 14955.3034
130.0497 542350.8750

Name: Unknown (0.82_144.0422n)
Precursor_type: [M+H-H2O]+
PrecursorMZ: 127.0389
Comment: 0.82_144.0422n
Num Peaks: 29
51.0842 1375.3068
53.0390 7548.3226
53.4708 1256.4670
54.9605 1919.6460
55.0181 3851.3517
56.3499 1706.9351
56.9229 1658.1019
57.2523 1379.1356
63.4108 1958.0462
69.0335 26151.8301
69.9448 14062.9577
71.0488 1805.7103
71.6739 1783.0732
72.8044 1307.6868
77.5760 1379.3109
80.9451 6175.5291
81.0336 39930.6823
82.2705 1324.1380
83.0127 4263.8351
87.1600 1519.2952
89.1659 1535.7715
94.6177 1524.2746
97.0278 1594.7896
97.1947 5764.3377
107.1749 1801.6935
109.0285 4721.9919
116.9660 3931.8327
118.9028 1398.4429
127.0387 8326.3159

Name: UMETA00028 (Glutamine)
Compound Id: UMETA00028
Precursor_type: [M+H]+
PrecursorMZ: 147.0763
Comment: 0.82_146.0690n
Formula: C5H10N2O3
Num Peaks: 17
56.0497 55801.9219
58.3835 15618.8698
62.2125 32811.7188
67.8373 17373.9674
69.9541 92385.7708
69.9720 134958.8359
69.9787 32907.2422
81.6163 14342.9453
81.6800 13293.5938
84.0443 1138509.3529
84.5469 13267.3477
84.5572 15398.6263
92.9678 17244.4010
96.4555 16500.3698
97.1950 34809.6836
124.6818 17785.7669
130.0494 201749.8854

Name: UMETA00345 (Glucosamine /Mannosamine / Galactosamine)
Compound Id: UMETA00345
Precursor_type: [M+H]+
PrecursorMZ: 180.0865
Comment: 0.82_180.0865m/z
Formula: C6H13NO5
Num Peaks: 16
55.4089 1667.6895
56.7089 1975.5933
63.2781 1675.4830
67.6559 1684.7742
70.4661 8072.5601
80.9450 8155.1743
85.0285 2961.6775
97.1958 2070.8928
114.9710 1958.7782
116.9664 2486.0798
137.9869 2641.4958
138.0526 6891.5098
157.9481 3724.7241
162.1009 1610.3654
165.1099 1695.4421
180.0756 10328.5479

Name: UMETA00007 (Alanine / Î²-Alanine / Sarcosine)
Compound Id: UMETA00007
Precursor_type: [M+H]+
PrecursorMZ: 90.0549
Comment: 0.82_90.0549m/z
Formula: C3H7NO2
Num Peaks: 16
50.0227 3352.7845
53.7523 3489.9603
57.1666 3074.2148
61.3327 2623.5117
65.0387 15378.4300
67.7065 1601.6995
68.3600 2592.5921
69.6777 1480.6774
69.9422 9330.6126
70.0651 14903.8392
70.1134 18363.3145
70.1369 13189.8216
72.0808 220989.0903
73.4812 2876.0960
77.0417 1602.2054
88.9905 1474.6403

Name: UMETA00006 (5-Aminolevulinic acid / 4-Hydroxyproline)
Compound Id: UMETA00006
Precursor_type: [M+H]+
PrecursorMZ: 132.0655
Comment: 0.83_131.0582n
Formula: C5H9NO3
Num Peaks: 28
56.7611 770.9384
58.0653 647.1317
68.0495 39086.2292
70.0552 3121.7156
70.0651 8545.2862
70.1871 4430.8656
70.4586 1828.3551
78.6590 553.1816
79.8880 553.2937
84.0443 13428.3666
84.4452 582.8393
85.8116 760.8079
86.0485 8410.5718
86.0599 119891.1003
90.9031 26880.6745
92.9546 584.7306
93.3844 549.1163
93.7466 806.7059
95.2390 822.5428
97.1970 798.6405
105.0697 3178.5535
108.9133 657.4895
116.0706 798.1500
117.2472 589.1294
122.4340 515.7036
131.9291 4017.1998
132.0551 1747.8513
132.0651 24064.5730

Name: Unknown (0.83_189.1350n)
Precursor_type: [M-e]+
PrecursorMZ: 189.1345
Comment: 0.83_189.1350n
Num Peaks: 43
54.3717 8787.2344
56.0497 70705.9557
57.0448 27154.2305
57.0703 9008.7168
57.1271 7886.9564
58.3937 10140.5872
60.0557 204485.1146
61.2194 8327.8828
64.9304 9600.7493
67.0542 103460.9479
67.8216 10561.6706
69.0698 21315.6354
69.8664 58783.3073
70.0652 446771.8438
70.8442 31262.1927
71.7029 7928.5872
74.0239 19422.0560
74.0712 81849.3060
77.2158 9128.1426
82.0652 24566.4935
84.0757 13544.3555
84.0807 2040199.8034
85.0645 145565.3503
86.0962 135639.3411
90.2410 8098.5710
97.1954 29810.0768
102.0907 25829.4297
116.0702 79516.9023
116.6255 7889.6146
126.1025 103814.9401
127.0860 10198.5469
130.0861 332925.4010
133.7445 8201.2786
142.1916 9062.9434
144.1021 14271.8294
144.1129 1124826.9010
144.1244 9332.2083
158.0928 8284.1901
166.1873 8144.7923
168.4517 7670.9603
172.1076 209524.1771
189.1183 16095.8867
189.1343 760623.9206

Name: UMETA00044 (Methioninesulfoxide)
Compound Id: UMETA00044
Precursor_type: [M+H]+
PrecursorMZ: 166.0532
Comment: 0.84_165.0459n
Formula: C5H11NO3S
Num Peaks: 37
51.9019 746.5146
54.1476 794.8418
56.0497 82852.6888
67.7323 701.9408
69.8890 8786.0029
69.9634 1155.5173
71.6771 1537.1287
74.0236 613979.2422
74.0600 4871.0701
77.9787 654.0077
80.9449 2229.8981
84.0446 1853.6603
90.2893 1216.2455
92.8414 806.1105
95.8282 1203.8807
97.1977 1833.7620
100.1693 1340.1986
102.0548 96088.6489
102.0848 824.5274
103.0911 3560.8341
104.0977 2565.5183
105.5975 758.3110
105.7626 1230.1566
107.0853 798.0786
114.9710 6002.0619
116.9662 2814.2915
128.3355 1027.6988
131.0163 994.4572
134.9212 822.4823
137.9860 824.9724
139.0978 823.2771
142.9667 8171.6758
149.0264 85735.8444
158.9881 2499.5422
160.9729 881.4013
165.9821 4130.7248
166.0530 68546.4344

Name: UMETA00445 (ser-galnac)
Compound Id: UMETA00445
Precursor_type: [M+H]+
PrecursorMZ: 309.1286
Comment: 0.84_308.1213n
Formula: C11H20N2O8
Num Peaks: 50
50.6843 642.5220
52.7013 894.4710
52.8855 835.4345
67.9093 711.2498
68.0495 5130.0505
69.0335 2854.5421
69.7387 5888.4924
69.8941 768.1401
70.2328 2943.8254
81.0334 6871.6226
84.0444 28953.6950
85.0283 7981.8181
86.0601 1045.3032
96.0442 2315.0991
97.0283 24807.1139
97.1979 2513.4195
102.0544 951.1412
110.0605 793.6423
114.0548 3399.5122
126.0545 1382.0145
127.0389 989.1743
130.0497 25006.9437
134.0594 1627.3541
137.2995 656.6268
142.0495 2801.8630
144.0652 870.3152
147.0752 911.3033
151.2832 865.5165
158.4916 640.7404
162.0545 2215.4867
164.0694 1706.8350
180.0653 1390.2153
192.0663 1525.3586
194.9774 3251.9555
195.0868 1155.7585
195.1027 694.3828
195.9317 688.4254
196.0100 733.0487
196.1699 1241.7906
208.0601 12716.8371
209.0926 884.1962
225.0868 6279.4429
226.0691 1431.8902
237.0869 893.1891
238.0710 1057.5852
238.3902 749.4616
246.0976 765.0784
256.0825 948.8866
273.1074 5378.4336
292.1017 984.7571

Name: UMETA00027 (Glutamic acid / N-Methyl-D-Aspartic acid)
Compound Id: UMETA00027
Precursor_type: [M+H]+
PrecursorMZ: 148.0603
Comment: 0.85_147.0531n
Formula: C5H9NO4
Num Peaks: 25
50.5593 5463.4525
51.3053 4381.7083
51.4783 4235.4271
54.5800 4083.2471
56.0906 3735.7920
57.2121 5274.0589
64.0936 5408.6719
66.2013 4533.4502
70.0876 25630.6719
70.1095 45673.9362
75.5101 4399.8926
82.6927 5231.1624
84.0444 328032.6836
88.6406 4093.8493
90.0743 4740.6309
97.1985 12876.4297
98.7693 6523.6589
102.0548 83242.7891
103.4916 4533.9987
107.9062 5201.1270
121.0283 35114.3190
121.0391 4740.3464
125.5692 3664.2809
130.0494 30243.3076
148.0598 4895.3812

Name: UMETA00018 (Citrulline)
Compound Id: UMETA00018
Precursor_type: [M+H]+
PrecursorMZ: 176.1029
Comment: 0.85_175.0956n_2
Formula: C6H13N3O3
Num Peaks: 37
50.2744 3534.5420
53.5606 4341.6266
53.8827 4053.4557
54.8166 3833.1924
58.3571 3723.6348
58.9331 3783.1374
66.6160 3813.6660
69.1497 41866.3229
69.1656 32065.4297
69.6228 4436.2028
70.0652 603069.5264
71.7002 5286.6035
87.0914 4323.7826
97.0758 13723.6520
97.1964 29351.0378
98.9841 11684.9391
100.9724 3774.9961
103.6246 3264.6722
104.4618 3768.6410
113.0708 875835.0514
113.0769 9550.8607
114.0550 153709.2734
115.0864 325839.8643
116.0704 160328.5365
130.0966 4769.5189
131.0014 22772.2334
133.0971 17088.3903
135.4294 3855.1563
141.0654 28072.5732
142.0496 9862.6195
149.0119 9116.4993
149.0228 21793.9089
155.6465 3928.6842
157.5123 4528.5101
159.0763 2204605.4948
159.0871 13402.8060
176.1033 70122.7839

Name: Unknown (0.86_145.0610n)
Precursor_type: [2M+H]+
PrecursorMZ: 291.1294
Comment: 0.86_145.0610n
Num Peaks: 50
60.0559 3147.6699
69.0334 2558.2404
69.8746 11658.7109
70.0287 2553.8794
70.0651 787350.9740
70.2541 12272.3773
70.2592 3213.7839
70.3774 2419.1105
71.0490 7146.7103
72.0807 24120.6468
74.0239 5260.5348
81.0333 3170.4043
84.0441 7083.2744
88.0392 185453.3765
88.0445 2661.4647
88.0757 2839.9583
92.0400 2529.2082
92.9044 2222.9562
96.0443 2809.7552
97.0281 16869.5970
97.1964 6958.7889
98.0349 6759.5882
98.0600 3035.7988
112.0499 4931.8789
112.0868 38241.5703
113.0709 48471.8021
114.0546 19533.5620
115.0864 96016.7708
116.0339 24865.4714
116.0704 406252.7448
116.0789 3143.3919
130.0494 14406.6808
130.0599 7803.0688
131.0447 46180.4323
133.0967 30832.0026
134.0443 62906.1667
140.0448 4942.3416
141.0659 2946.0055
145.7218 2215.9160
158.0563 53498.0078
158.0924 44822.5625
159.0763 97308.8880
176.0661 131548.8011
179.2782 2406.9012
190.1194 2514.2174
195.0871 2759.5505
210.0863 7480.8324
228.0978 10174.5303
246.1084 65916.9784
291.1296 22215.4987

Name: UMETA00003 (3-Amino(iso)butyric acid)
Compound Id: UMETA00003
Precursor_type: [M+H]+
PrecursorMZ: 104.0706
Comment: 0.89_103.0633n
Formula: C4H9NO2
Num Peaks: 29
50.4563 597.0448
52.9258 527.6473
58.0653 323902.3929
59.0730 27580.6784
60.0809 730011.8793
61.0844 9600.9414
62.0603 3766.5016
62.3032 589.8905
63.9474 639.1947
64.1359 546.2282
64.3983 592.2405
65.6489 637.2145
69.5328 582.2875
69.8867 1758.3786
69.8943 909.0671
71.6956 674.9424
71.7038 739.9355
77.0382 3935.3436
79.0541 11814.6217
80.3377 631.9948
85.4504 676.5166
86.0962 1055.4804
88.0754 917.3772
95.0490 25678.6523
96.0872 552.2633
97.1982 700.1322
100.1123 617.7253
103.0539 8802.5360
104.0706 40210.5104

Name: UMETA00135 (Acetoacetic acid / Succinic acid semialdehyde)
Compound Id: UMETA00135
Precursor_type: [M+H]+
PrecursorMZ: 103.0389
Comment: 0.91_102.0317n
Formula: C4H6O3
Num Peaks: 13
57.0337 8924.9727
58.0653 14014.8623
60.0810 57567.8086
61.9279 2901.5364
62.9291 13312.7129
69.8871 8214.2722
72.9370 7678.7314
82.5513 1851.2834
85.0283 28968.5508
85.2838 1996.6708
92.8865 1572.7506
97.1974 2193.4917
103.0389 11907.4658

Name: Unknown (0.91_129.0658m/z)
Charge: 1+
PrecursorMZ: 129.0658
Comment: 0.91_129.0658m/z
Num Peaks: 27
53.9040 2727.7555
54.5574 5810.4408
55.0546 9017.1963
55.9347 12712.9941
56.0498 179185.0990
60.0557 3674.7474
61.0453 6759.1335
66.0340 15267.8285
69.8720 16062.3919
69.8877 13222.6641
70.0651 27531.9440
71.7042 6483.8171
77.3520 2976.2897
80.0745 2704.7741
83.0603 2072877.4098
84.0444 182238.1198
84.0638 73295.1149
84.0806 10336.0879
87.3293 2469.2454
91.9538 2707.1530
97.1948 8195.6546
100.0605 3022.7197
108.4201 2800.3418
120.1912 5207.6029
123.9199 4848.2480
127.5320 2509.0812
129.0657 166040.7813

Name: UMETA00242 (C0 | L-Carnitine)
Compound Id: UMETA00242
Precursor_type: [M+H]+
PrecursorMZ: 162.1124
Comment: 0.91_161.1051n
Formula: C7H15NO3
Num Peaks: 40
51.5880 29165.8672
51.7989 39735.7708
57.0337 1696119.6484
58.0654 619465.3438
59.0732 522718.9896
60.0810 14251826.0690
61.0285 154768.3958
61.0843 93599.7604
69.8708 47944.6927
69.8857 34834.2109
69.8909 153029.4063
69.9334 28178.2188
70.5196 79069.5814
73.5206 29454.7500
76.4181 9066.4941
77.1737 8528.4616
77.3295 5502.4733
78.4722 5575.6686
80.4969 9803.6159
80.9449 8959.3509
81.7240 7756.3822
83.4941 30706.6432
83.7010 26058.9818
85.0283 16854241.5052
90.9821 28783.3464
97.1950 62266.3079
102.0912 10077701.2344
102.0968 55267.5000
103.0388 20999403.7292
103.0444 101360.8021
103.0944 119782.6354
104.2843 36892.0755
116.9176 8700.9518
121.0500 10547.2539
126.2307 8164.2038
135.0441 6272.5417
136.8033 8096.8633
144.3735 6317.2741
151.5411 8877.5892
162.1123 7152077.1563

Name: UMETA00026 (Formiminoglutamic acid)
Compound Id: UMETA00026
Precursor_type: [M+H]+
PrecursorMZ: 175.0713
Comment: 0.91_175.0713m/z
Formula: C6H10N2O4
Num Peaks: 39
55.9346 2178.9827
56.0498 22031.4668
57.0221 1794.7861
60.0558 22942.4824
65.5411 1646.0647
68.0494 13926.8203
69.8885 12657.5583
70.0652 110743.9089
70.8470 1735.0487
70.9470 1802.0759
72.0808 2404.2832
83.0602 48926.3818
84.0443 96249.5000
84.0808 19933.9004
85.0282 3749.1802
88.0393 2826.0889
89.5603 1757.8618
90.9474 1983.3142
97.1974 3521.7971
98.9840 53303.3477
102.0549 2517.4299
111.0551 27804.3633
112.0754 3804.8774
113.0705 16999.6250
114.0547 3503.7771
115.0870 4063.0146
116.0704 14980.4082
118.9630 2043.5260
129.0656 20595.6543
130.0501 25930.5762
130.0865 1950.9226
130.0965 3567.7629
132.9785 2306.4102
146.9937 3364.3608
157.0606 33807.5469
158.0924 3597.6123
159.0758 12768.8906
171.4097 1647.5020
175.0710 33221.2266

Name: UMETA00034 (Homocitrulline)
Compound Id: UMETA00034
Precursor_type: [M+H]+
PrecursorMZ: 190.1186
Comment: 0.93_190.1186m/z
Formula: C7H15N3O3
Num Peaks: 39
52.2082 958.0259
56.0497 3910.6868
59.6074 1028.2321
61.4238 911.2728
63.6146 957.1022
69.0334 1663.2097
69.8687 5505.2281
69.8912 5065.8047
71.0497 900.4109
76.7682 890.6226
77.4187 881.4557
80.0496 1041.1056
80.9454 862.0334
81.0332 1153.6067
82.0650 4076.1608
84.0444 1172.3314
84.0807 42860.9203
85.0282 1886.5870
93.7075 928.5547
97.1978 3140.1774
98.0597 4267.9944
100.0755 8119.6035
107.9067 835.1863
110.0591 1145.0920
116.9656 2399.1023
117.9285 11838.3193
119.9442 6813.2266
126.0540 963.9932
127.0867 31724.6821
128.0699 1052.9991
130.0858 1044.4813
147.9387 3777.7277
149.1771 830.7657
154.1844 975.0543
155.1121 777.7928
160.9383 777.1058
173.0920 12672.7754
173.9181 22362.6914
178.9497 13691.3564

Name: Unknown (0.94_132.1018m/z)
Charge: 1+
PrecursorMZ: 132.1018
Comment: 0.94_132.1018m/z
Num Peaks: 17
51.0420 884.2915
51.6281 877.3445
58.0652 3066.3893
59.0731 1058.0731
60.0809 11945.5493
61.0399 924.4329
69.8706 5236.6123
69.8870 4567.6396
73.0284 41224.0352
90.0547 14821.3203
90.9031 19330.7510
97.1975 3018.8169
105.0696 5438.1853
111.4014 958.5366
132.0659 906.2266
132.0764 3140.6045
132.1019 13964.2231

Name: UMETA00378 (Trigonelline)
Compound Id: UMETA00378
Precursor_type: [M+H]+
PrecursorMZ: 138.0549
Comment: 1.00_138.0549m/z
Formula: C7H7NO2
Num Peaks: 49
53.0389 1035.3557
61.9474 635.1925
65.0386 16982.8356
67.0543 7582.9908
67.9349 1344.0199
68.9425 6633.5452
69.8718 4507.8308
69.8844 4442.2948
69.8920 2507.2402
75.3207 606.9798
77.5339 571.6907
78.0337 5996.0040
78.9495 8725.8950
79.0415 1249.6829
79.9572 1491.1694
80.0495 736.3224
80.9450 3466.9109
83.9297 661.2975
92.0494 30896.4922
93.0574 12440.7500
94.0651 96993.7382
96.0442 23567.4860
96.9374 2311.8799
96.9602 2405.2130
97.1952 3127.5243
97.9683 578.7948
98.9839 5003.6222
103.5224 611.1002
110.0531 948.5806
110.0599 69212.6063
110.0661 1315.8116
114.9480 2840.6709
114.9710 19894.2747
116.9660 5677.3641
118.4555 526.0223
120.0437 548.8278
120.2720 582.2170
121.0281 11781.3262
123.4653 611.2877
125.9150 575.3166
128.9863 29339.6120
130.7030 540.0835
130.9816 4269.8909
132.9586 4888.0195
132.9790 555.3110
133.9439 554.2405
134.0488 560.3012
137.9870 551.0411
138.0548 313353.3584

Name: Unknown (1.14_123.0552m/z)
Charge: 1+
PrecursorMZ: 123.0552
Comment: 1.14_123.0552m/z
Num Peaks: 43
51.3497 604.1779
53.0387 628.0112
55.7573 546.4790
56.1643 531.4716
58.4986 530.7504
60.9973 531.5556
63.8936 523.4567
65.3372 583.9734
69.8697 3767.3326
69.8907 3755.3154
71.7018 1254.4223
72.7612 563.8697
73.7560 648.5578
75.9032 581.0389
75.9911 535.9720
78.0337 6414.9620
78.9497 3192.7089
79.0542 19601.2349
79.9487 1744.8822
80.0494 71421.7796
80.9451 4343.7961
81.0701 3048.2897
81.9451 10921.8285
82.9417 10953.9525
87.7144 618.1643
95.0491 8498.4806
96.0442 28069.1960
97.1968 2562.4259
97.5365 567.7772
99.9559 810.3006
100.9527 1565.8207
105.0328 710.4595
105.0442 2603.5373
106.0290 1989.4126
108.0576 666.5760
112.6521 530.3867
114.0994 626.8347
114.9706 11481.1734
115.9698 7399.6818
116.9658 2691.1593
117.9660 13868.6410
118.9629 12496.6882
123.0551 93966.5177

Name: Unknown (1.14_279.1314n)
Precursor_type: [M+H-H2O]+
PrecursorMZ: 262.1281
Comment: 1.14_279.1314n
Num Peaks: 50
53.0388 4009.7715
55.0180 3336.6563
55.0545 47906.7586
57.0337 9300.0901
57.0699 4672.4763
58.0288 6775.2884
59.0367 18972.4215
67.0545 3955.6465
69.0335 41463.8346
69.8719 3531.1302
69.8871 10265.3903
70.0652 4872.7970
70.0892 4092.8561
72.0808 147602.7827
72.0868 2631.9696
73.0284 7689.0343
81.0335 5621.1973
82.0648 7140.5754
83.0121 3156.8291
84.0443 8071.0936
84.0808 106872.8764
85.0283 35201.0169
86.0962 14128.1401
87.0315 51042.6419
97.0283 38446.2773
97.0521 2689.1504
97.1966 6575.0928
99.0435 7953.7929
102.0909 28719.8138
112.0390 30506.5879
114.0910 19921.4893
118.0861 45772.9082
126.0913 9193.5673
127.0387 30289.0990
130.0860 42818.2598
143.0571 22951.7256
150.0911 11758.5295
154.0863 8747.3502
156.1011 4295.8825
161.0676 21908.2813
168.1019 2783.1657
180.1012 8762.2337
195.0865 5931.3984
196.0968 8249.0304
196.9323 4926.4938
198.1123 55325.7992
216.1227 167629.7490
234.1333 6051.2184
244.1173 87372.2143
262.1281 40833.9681

Name: UMETA00060 (Pipecolic acid)
Compound Id: UMETA00060
Precursor_type: [M+H]+
PrecursorMZ: 130.0862
Comment: 1.15_130.0862m/z
Formula: C6H11NO2
Num Peaks: 23
55.0517 1643.0193
56.0498 2602.3528
56.9049 1348.4475
56.9583 1413.8145
57.1123 1377.3740
58.9399 1357.6205
69.4566 1613.7352
69.8701 9266.6172
69.8871 8144.0669
71.8174 2706.8950
71.9293 53391.1680
72.9370 22343.0596
84.0443 25609.0615
84.0807 404806.6255
89.9398 60848.8984
90.9473 1659.9584
97.1944 4783.5503
106.3401 1936.9026
107.9502 23834.8730
125.4332 1930.0153
125.9610 2829.4709
130.0647 1684.7676
130.0857 5669.2865

Name: UMETA00322 (Pseudouridine)
Compound Id: UMETA00322
Precursor_type: [M+H]+
PrecursorMZ: 245.0764
Comment: 1.26_245.0764m/z
Formula: C9H12N2O6
Num Peaks: 50
50.9610 587.2442
53.1778 587.0079
53.9578 688.1790
54.0342 583.5409
55.0182 633.1609
58.2117 640.0948
58.9216 583.0874
60.4117 582.7947
61.0313 632.1712
68.0498 2383.3809
68.1697 594.7740
69.8710 1259.3982
69.8870 4536.6564
69.8966 611.2804
70.0645 1296.9049
80.0493 1751.9456
82.0289 5748.3101
84.0445 1295.9148
92.0493 4409.0697
96.0442 2504.1483
97.1958 4001.0260
100.0395 7978.9561
108.0445 664.0033
112.0395 2039.2084
120.0443 3454.4217
125.0349 20575.7109
139.0503 692.3439
148.0395 4181.7749
151.0506 1218.4249
155.0453 9953.5841
163.0504 6212.1882
167.0453 5945.2730
179.0451 3176.3085
191.0455 12126.1654
193.9307 715.3789
193.9906 593.1880
194.1171 5117.9034
194.9418 3027.9392
194.9624 6050.6292
195.0127 676.0059
195.1030 810.3651
195.1389 1595.0477
195.9120 8653.7095
195.9273 1232.1674
195.9955 2298.4406
196.0447 1875.3313
196.1696 1107.4656
209.0557 8426.4455
212.9768 9835.7062
213.9226 4404.1283

Name: UMETA00124 (4-Guanidinobutyric acid)
Compound Id: UMETA00124
Precursor_type: [M+H]+
PrecursorMZ: 146.0924
Comment: 1.29_146.0924m/z
Formula: C5H11N3O2
Num Peaks: 18
55.9347 22361.5859
56.9424 16519.7832
57.7342 1812.4214
65.9446 1729.8549
69.8734 9580.2554
71.9294 3905.1648
72.9371 31341.3047
74.9528 2392.4707
77.9408 1861.1071
86.0600 9013.2080
87.0441 2621.5564
90.9477 14456.1719
91.0540 6751.3501
97.1974 3001.5325
98.4660 2309.4829
118.9423 2333.8579
118.9673 3544.1545
119.0853 2120.8975

Name: UMETA00043 (Methionine)
Compound Id: UMETA00043
Precursor_type: [M+H]+
PrecursorMZ: 150.0583
Comment: 1.31_150.0583m/z
Formula: C5H11NO2S
Num Peaks: 50
56.0499 313714.5870
59.6400 2155.2681
61.0110 126890.2096
63.9427 2086.9405
69.8710 12328.5964
69.8865 4191.2601
71.6998 888.0865
74.0239 18459.6250
74.0605 31498.3584
80.9402 2896.6973
80.9453 253941.0605
81.9527 845.0164
83.6566 1943.7311
84.0444 6552.9919
85.0282 5321.4266
86.0605 7063.4554
87.0264 41351.3060
87.3240 2027.1597
89.0419 966.9755
92.4468 1996.8459
94.0020 1918.5876
95.0852 3308.8763
97.1954 3433.5734
98.9558 97845.3377
101.6037 1879.8908
102.0552 128929.9271
102.0616 926.2048
104.0530 507751.2806
105.0002 2527.0081
105.9632 11893.8613
106.2503 2100.9831
108.9513 1595.4495
109.0642 809.5993
109.1012 2071.4027
116.9664 414090.6870
121.9718 8647.6188
122.0325 2109.0983
125.9664 3516.4202
126.9507 12557.0863
126.9615 6828.9715
131.9534 2069.8901
132.0658 1870.5220
132.9608 1120.6359
133.0320 310621.1010
135.7109 1882.0223
139.9824 354595.4284
141.9983 6734.9515
144.9614 74285.0011
150.0271 34415.0397
150.0583 53673.8763

Name: UMETA00046 (N-Acetylarginine)
Compound Id: UMETA00046
Precursor_type: [M+H]+
PrecursorMZ: 217.1294
Comment: 1.34_217.1294m/z
Formula: C8H16N4O3
Num Peaks: 50
55.0544 1308.5255
57.5234 639.8192
60.0447 1806.6194
60.0560 8934.9722
62.8041 662.0559
69.8736 4195.1077
69.8896 7619.5900
70.0652 38091.6882
71.0492 5039.7646
72.0809 4391.7204
74.0234 1243.1600
83.0492 13142.5889
87.0439 648.9854
97.1964 3351.6806
101.0598 9309.3713
111.0441 28718.7878
112.0755 14858.9788
112.0868 8983.5285
113.0711 3018.6344
114.0914 8603.3366
114.1016 2023.5498
115.0865 21345.2995
116.0706 32660.4258
127.0746 1505.4312
129.0548 3059.0663
129.0694 4580.0311
130.0973 4461.6587
139.0863 896.4581
155.0700 31269.2940
157.0976 14300.6582
158.0811 71235.8826
158.0921 12632.4170
173.0803 9452.0420
175.1190 19161.9954
193.9700 769.7285
194.1177 2205.1206
194.9429 10146.4040
194.9665 42634.4479
195.0865 5926.2845
195.9110 1663.7762
195.9946 2831.8534
196.1690 882.4606
200.1029 8665.7985
206.9699 3291.7297
211.9806 4632.4622
212.9570 1120.9150
212.9769 99046.4125
213.9215 2957.4004
217.1078 2421.5835
217.1292 16312.4684

Name: Unknown (1.52_104.0705m/z)
Charge: 1+
PrecursorMZ: 104.0705
Comment: 1.52_104.0705m/z
Num Peaks: 19
57.5747 929.1298
58.0653 3266.7080
59.7202 794.4500
60.0445 17182.2783
62.9291 8785.4036
68.1446 874.8657
69.8692 5258.8003
69.8865 4954.9883
73.7346 912.6979
77.0385 2725.8511
79.0541 13827.1899
87.0436 3727.9508
88.8869 845.4380
91.8954 838.2169
95.0490 24373.5723
97.1943 2833.7927
102.9811 872.9785
103.0539 10621.7622
104.0700 4751.2822

Name: UMETA00325 (Uric acid)
Compound Id: UMETA00325
Precursor_type: [M+H]+
PrecursorMZ: 169.0355
Comment: 1.65_168.0282n
Formula: C5H4N4O3
Num Peaks: 44
52.2179 1207.8125
53.0142 8660.3223
53.7579 1229.4810
55.0294 170618.6198
61.2471 4086.0384
67.1107 1280.6919
68.0245 11323.6029
69.0084 280752.3984
69.8712 64962.4948
69.8877 22027.4974
69.9740 7357.0319
69.9925 18577.2181
70.0400 740253.6206
71.0240 4415.5521
71.0490 1407.7057
80.9450 152217.9717
83.0239 5028.7119
89.9326 9283.5384
92.0493 1967.8079
93.0573 5549.2402
96.0191 643512.9740
97.1968 26056.7975
98.0348 530682.6875
98.4831 1350.3081
98.9552 33550.9063
99.0186 26676.2721
100.8395 8832.0749
109.0028 21508.9447
115.1885 9388.6862
116.9660 292275.5389
116.9727 2208.3953
123.0300 21735.8019
124.0140 235700.5768
126.0208 15203.4714
126.0296 715008.1999
140.9821 1426.9372
141.0405 2116489.7741
141.9788 13346.0068
144.0399 1723.4447
144.9609 79870.2134
151.0248 83348.5596
152.0088 982630.8879
156.2147 4719.4453
169.0354 5438869.2539

Name: UMETA00133 (5-Oxoproline)
Compound Id: UMETA00133
Precursor_type: [M+H]+
PrecursorMZ: 130.0498
Comment: 1.66_129.0426n
Formula: C5H7NO3
Num Peaks: 31
50.9474 571.8906
51.2483 570.9204
51.4527 590.7017
52.4841 565.7475
54.9939 555.2318
56.0497 10607.4741
57.4626 551.9855
57.5439 575.4763
58.0675 600.4830
60.6481 627.3050
69.8729 2479.1366
69.8853 5997.8032
70.0652 10140.8630
71.9295 46620.8620
72.9373 25832.4694
78.7793 545.5823
78.9925 565.7828
84.0445 149339.3510
89.0722 562.0494
89.9400 22632.4141
90.9476 9299.3890
91.0542 2508.7815
94.3496 542.5638
97.0079 2246.3262
97.1956 3129.4972
102.1627 677.6435
107.9505 24833.7188
114.6316 563.6130
118.2843 530.6570
125.9611 22045.7988
130.0496 6120.5741

Name: Unknown (1.67_177.0397m/z)
Charge: 1+
PrecursorMZ: 177.0397
Comment: 1.67_177.0397m/z
Num Peaks: 50
55.9348 5655.4637
56.9425 6579.6919
59.0491 1418.6511
61.0108 3700.0797
65.0387 3432.0482
68.0497 7419.7809
68.4093 742.7379
69.8897 3089.6963
70.9579 20206.3320
71.6779 738.5605
72.9374 5286.3853
73.0468 64498.9913
75.0260 27178.4366
77.0055 5150.0175
84.9595 16729.8743
86.0599 14493.2747
88.0215 1046.4504
88.9681 882.8988
90.9480 714.5116
91.0574 38549.1289
93.0366 12931.9183
93.0697 1779.1519
95.0161 3824.9776
97.1977 1662.0149
98.9842 18506.7669
100.9142 9529.3205
116.9089 6013.9076
120.9770 1121.1223
121.0287 1937.5742
121.0394 855.5929
131.0853 1256.6485
133.0136 9741.8704
138.9881 751.5232
148.9352 1513.2050
149.0238 25538.5251
149.0446 88006.7148
149.0560 1365.0662
150.9509 1540.6607
151.0240 194017.9801
161.5633 774.0626
166.9455 252974.5716
167.0045 1008.5247
167.0552 300271.5801
167.0696 797.6343
168.9249 14665.4382
169.0344 432647.2863
169.0496 1144.0416
172.9522 814.2579
174.8028 791.4861
177.0395 395132.1120

Name: Unknown (1.67_74.0188n)
Precursor_type: [2M+H]+
PrecursorMZ: 149.0448
Comment: 1.67_74.0188n
Num Peaks: 42
51.5079 581.3772
52.1942 1309.9618
61.0107 20673.2868
62.9896 2671.7509
63.9424 1170.5222
65.0386 70092.5930
69.5675 581.5865
69.8757 8132.5329
69.8902 2985.2192
70.0947 8130.2266
73.0468 95949.3836
73.2095 580.4253
75.0260 68961.4141
76.0715 1993.9059
79.0210 771.3715
79.9490 4184.3688
80.9449 94355.0573
89.5072 571.8450
91.0573 71078.2044
93.0369 40691.7923
97.1986 5497.6785
98.9553 28407.0521
100.5568 1485.9113
100.9300 609.8604
105.0335 891.5110
105.9627 728.6197
110.4632 1952.1841
111.0442 4414.0719
115.9698 7504.1772
116.9659 108821.6068
121.0283 36429.5156
121.0393 23125.9759
126.8761 2210.6340
132.5204 1359.7205
133.0135 7965.3667
138.9870 5708.3748
139.9823 32606.2565
144.9604 5467.6675
145.6014 1695.2760
149.0230 83067.7791
149.0344 672.8195
149.0444 18776.4574

Name: UMETA00311 (Hypoxanthine)
Compound Id: UMETA00311
Precursor_type: [M+H]+
PrecursorMZ: 137.0458
Comment: 1.70_136.0385n
Formula: C5H4N4O
Num Peaks: 35
51.8806 571.0798
52.1146 612.8267
54.7447 739.5180
55.0294 30740.4508
56.0957 1506.0967
58.6794 761.8277
66.5757 588.8150
67.0291 14497.3692
68.9428 4583.8595
69.8710 7024.1839
69.8873 6968.6348
72.6168 1484.1872
78.9497 9373.5846
81.0697 705.7864
82.0399 38711.4469
83.0241 2397.7959
88.5882 529.8096
90.2817 537.4740
90.9012 1557.2139
92.0241 13782.5651
94.0398 78942.5651
94.3930 1651.9318
96.9375 718.5734
97.1952 4982.9800
102.0225 566.3843
109.0643 578.2598
110.0348 174037.3254
110.0415 2187.2177
112.0506 5505.7816
114.9707 12121.0684
119.0351 138227.2686
128.0450 1686.3171
129.5629 681.7601
132.9591 1724.5956
137.0456 686690.2897

Name: UMETA00065 (S-(2-carboxypropyl)cysteine)
Compound Id: UMETA00065
Precursor_type: [M+H]+
PrecursorMZ: 208.0637
Comment: 1.72_207.0565n
Formula: C7H13NO4S
Num Peaks: 44
56.0497 46355.1141
59.7991 561.1225
61.0109 647.8933
68.0494 36287.6426
68.5718 619.4695
69.8714 3598.3405
69.8875 6060.1001
70.6746 592.4046
74.0235 57083.6289
74.0600 5669.4184
78.9495 9045.2783
79.0546 644.2048
84.0441 722.3208
91.4805 487.5508
94.7288 587.9629
96.9602 2296.6421
97.1928 2091.5738
97.1985 1625.4978
98.0599 216029.4261
98.3953 600.6656
99.2918 567.8845
101.4038 532.8395
102.0549 14353.0475
107.7421 557.3282
112.8161 613.5558
114.9706 27057.1279
118.9797 690.5416
137.2670 532.6739
142.9659 20563.7712
144.0652 207146.6081
147.6951 566.3532
149.0263 3181.3653
162.9869 584.6244
164.9489 1528.0120
165.9814 627.5854
166.0527 12870.1992
166.9455 3911.7812
178.2071 620.8893
184.9557 799.7920
194.9403 24822.7892
195.0864 987.1643
195.9905 8126.5074
203.9383 710.7140
207.4318 579.5273

Name: UMETA00008 ((allo)Isoleucine)
Compound Id: UMETA00008
Precursor_type: [M+H]+
PrecursorMZ: 132.1019
Comment: 1.90_132.1019m/z
Formula: C6H13NO2
Num Peaks: 26
51.0868 618.0068
53.6783 543.5312
53.7088 660.3654
53.9273 556.5260
55.5408 600.6440
59.9674 570.2969
60.7335 529.7122
68.1073 539.3861
69.0701 6559.8345
69.8711 1293.4569
69.8766 747.2608
69.8850 7269.0885
79.1810 581.6656
82.0736 558.6228
84.3005 644.0093
84.8753 527.9798
85.7576 574.9017
86.0966 37988.5647
86.9046 547.8811
90.6264 569.5068
90.9034 1536.1608
97.1942 1553.5340
98.5393 526.1801
105.0699 5188.3086
107.1207 521.7078
132.0650 617.8336

Name: Unknown (2.03_112.0272n)
Precursor_type: [M+H]+
PrecursorMZ: 113.0345
Comment: 2.03_112.0272n
Num Peaks: 33
54.7881 599.8805
55.9348 2962.2215
57.9908 574.3442
62.3413 594.2138
62.3840 584.1932
67.0545 684.1922
68.0132 7864.0710
69.0701 3751.8788
69.8730 3560.3916
69.8861 5029.9119
70.0288 162875.5667
71.5560 576.1400
71.7020 527.7856
71.9293 120590.7080
72.9371 48236.2827
73.0468 30690.8867
75.2484 564.1055
79.0544 3374.4762
85.7432 619.6370
89.9399 4467.0465
90.9476 22928.4102
91.0573 54564.4505
92.8614 573.5417
95.0239 13011.7848
96.0079 108672.9492
96.0808 1664.0598
97.1954 2900.5032
100.9638 641.3767
107.9507 1567.0508
109.7336 625.1615
111.0910 565.8448
113.0231 7250.9759
113.0344 147741.3966

Name: Unknown (2.13_293.1469n)
Precursor_type: [M+H-H2O]+
PrecursorMZ: 276.1437
Comment: 2.13_293.1469n
Num Peaks: 49
57.0339 2797.3684
58.5549 1845.2675
59.0369 3418.4749
69.0337 9398.0361
69.0701 12727.2441
69.4281 1791.2527
69.8903 9172.5576
72.9375 1901.4478
77.4579 1914.2120
84.0443 2003.2838
85.0284 9379.0352
86.0965 43273.3976
87.0318 15747.5195
88.0395 2632.2400
97.0283 7817.8047
97.1824 1867.2517
97.1934 2229.7991
98.0967 13523.0820
112.0393 3519.0996
116.1072 3496.8479
116.9659 2060.8767
127.0388 8137.6611
128.1068 3476.0044
132.1016 7237.9697
134.3057 1691.0530
135.6408 1594.4650
143.0573 2141.7505
144.1024 6362.9111
161.0690 2626.7463
180.8885 6951.4766
193.9893 2694.7839
194.1179 3882.1157
194.9417 7457.7935
195.0718 2198.9119
195.9127 12352.0498
195.9971 1823.4999
196.1711 1955.0349
196.9045 13541.4795
208.8835 2942.3479
210.1120 2361.6021
212.1284 7760.9678
213.9223 9254.1289
214.9149 3418.2832
224.8992 16896.0820
226.8938 7218.2300
230.1387 34271.0427
249.5751 1587.6840
258.1330 13062.9990
276.1440 9535.2715

Name: Unknown (2.14_153.0406m/z)
Charge: 1+
PrecursorMZ: 153.0406
Comment: 2.14_153.0406m/z
Num Peaks: 50
53.9394 3046.7998
55.0295 11415.9030
55.9348 644.9272
65.0389 6593.9632
65.6188 624.2326
66.9387 1920.1336
67.0545 656.1677
68.9429 2307.6541
69.0705 683.6166
69.8709 2990.6914
69.8857 6237.5994
78.9497 819.8086
79.0546 2372.7735
79.2454 595.7408
80.9451 2015.5123
81.0085 6110.8380
81.0698 1046.4124
82.0401 11448.3691
82.9334 11748.0339
83.0236 663.1907
83.0491 618.5416
83.9413 928.9144
93.0336 1221.3655
93.0698 1659.4734
95.0859 642.5025
97.0652 830.7746
97.1956 3451.6761
98.9555 619.6113
101.9520 1583.1985
107.0855 2130.0159
110.0271 896.8432
110.0350 109435.4301
110.0959 1295.8390
111.0441 5433.4549
114.9709 865.2957
115.9699 1384.4832
116.9661 10256.9567
118.9547 7751.4172
118.9624 919.0173
119.9623 3080.0070
121.0285 2582.0426
125.0600 1650.7292
128.0454 14020.4590
130.9820 5777.0040
135.0802 2883.8524
136.0143 12315.7939
138.0675 601.8556
141.9701 1684.3062
147.9574 2553.6784
153.0409 124958.7419

Name: UMETA00041 (Leucine)
Compound Id: UMETA00041
Precursor_type: [M+H]+
PrecursorMZ: 132.1018
Comment: 2.17_131.0946n
Formula: C6H13NO2
Num Peaks: 25
51.6227 651.8528
51.9174 596.5012
56.0952 539.3209
61.6256 513.3685
61.8409 527.7946
64.5616 569.5883
69.7758 579.4642
69.8738 4254.0850
69.8868 7487.4807
70.7261 594.5315
71.1309 674.2058
75.8839 596.3392
77.1177 562.9312
81.2654 599.7095
86.0966 6157.4064
89.0732 609.0701
90.9034 3250.7006
97.1961 1872.8725
99.7056 545.0522
105.0700 4439.9527
110.7187 565.8805
112.8963 459.5459
125.0577 531.5664
127.6680 488.4788
129.1392 535.6903

Name: UMETA00243 (C2  | Acetylcarnitine)
Compound Id: UMETA00243
Precursor_type: [M+H]+
PrecursorMZ: 204.1230
Comment: 2.38_204.1230m/z
Formula: C9H17NO4
Num Peaks: 50
57.0701 797.0291
57.3742 603.9578
60.0810 76016.9317
62.7688 635.5814
63.4587 590.7399
66.9951 581.7171
67.7577 962.5052
68.6407 589.2519
69.0698 4222.2290
69.8731 3905.5931
69.8885 6796.4603
78.7640 573.9124
80.4385 579.0898
84.8146 872.9909
85.0284 341095.5560
85.2458 674.8529
89.2358 613.4475
97.1928 1844.5041
97.1979 2540.1961
98.0209 634.7903
117.9463 638.7388
118.9422 3741.0103
130.9426 799.1182
136.9531 5865.2902
144.1020 13041.9849
145.0494 105297.7534
148.9532 2507.9246
149.0232 30497.1803
150.5959 688.1459
155.9871 4123.9701
156.9934 3871.7232
158.1178 837.2716
168.9946 1285.5349
173.9972 1251.9979
175.0053 9115.2578
176.9328 1413.7392
187.0052 2247.1957
194.1177 1614.9505
194.9086 11075.5939
194.9431 20654.1478
195.0120 18878.1339
195.1029 640.1859
195.1190 612.3519
195.1383 585.1913
195.9128 3532.9257
195.9954 1633.6184
196.1695 817.4215
203.1020 575.9176
203.9313 7918.9976
204.1229 337079.3424

Name: UMETA00139 (Benzoic acid)
Compound Id: UMETA00139
Precursor_type: [M+H]+
PrecursorMZ: 123.0440
Comment: 2.85_123.0440m/z
Formula: C7H6O2
Num Peaks: 37
50.0154 5405.6297
50.5823 872.9924
51.0045 905.6763
51.0233 23271.0137
52.2065 969.1520
52.4688 1113.5487
53.0388 1044.7319
58.9283 851.3506
60.4009 899.9054
61.6851 854.3484
63.9424 14311.2135
64.9424 33775.4499
65.0387 1238.2658
65.9393 36623.3737
67.0512 2731.6903
68.0575 12484.1423
69.8753 5785.0241
69.8891 7827.0931
75.0437 890.5997
77.0386 27890.5853
80.0489 2110.0298
80.9450 7245.7773
81.9449 19144.9701
82.5842 816.5622
82.9416 21733.3014
94.0412 1269.9964
95.0490 43639.4262
95.0789 1496.3091
96.2549 1102.7713
97.1968 3373.3472
99.7600 873.8980
99.9551 1561.2437
100.9522 3582.5513
105.0447 27667.6458
116.9662 4150.7031
117.9657 14549.8298
118.9626 17376.7158

Name: Unknown (2.85_164.0473n)
Precursor_type: [M+H]+
PrecursorMZ: 165.0546
Comment: 2.85_164.0473n
Num Peaks: 50
51.0234 618.3843
52.8499 693.4889
60.6054 643.5749
65.0388 714.7756
67.0542 7253.5845
69.8747 3428.2311
69.8872 6372.3939
70.4312 627.3422
75.6265 1918.4262
77.0387 6967.2931
78.9499 13651.7764
79.0545 758.2707
80.9451 6363.0696
81.0699 6481.9049
81.5855 620.3226
82.9417 3220.7773
91.0541 95994.9543
92.3300 1760.9886
93.0697 8035.6714
95.0490 489189.3984
95.0852 822.3831
96.9605 2485.8389
97.1948 3077.8778
97.8930 2186.1042
98.9557 1394.3637
103.0540 25679.6445
105.0446 31884.8845
109.0649 18075.1491
109.1007 1563.2586
114.9499 652.5660
114.9708 31047.6354
116.9661 13954.7195
118.9628 809.7744
119.0490 234636.9587
119.0861 2153.6388
120.0802 648.5046
121.0648 7922.9479
121.0881 3101.7306
123.0438 437683.4408
129.3551 1208.8735
132.9605 4371.4885
137.0598 9274.7568
137.9863 16435.6377
139.7566 642.7025
139.9820 8279.8368
141.9781 808.6812
142.9662 7922.8644
147.0438 28611.4976
159.2899 624.2197
159.3019 2669.8491

Name: UMETA00075 (Tyrosine)
Compound Id: UMETA00075
Precursor_type: [M+H]+
PrecursorMZ: 182.0811
Comment: 2.85_181.0738n
Formula: C9H11NO3
Num Peaks: 39
50.5740 9221.6667
55.0545 14658.0247
56.2007 7763.8203
60.1265 7423.3216
64.4612 6145.1029
69.6640 6762.1029
69.8880 88773.6732
71.6782 5279.8802
74.2915 6879.2324
77.0387 6541.6823
80.9449 34419.8548
82.8253 6238.0977
89.6404 5903.0957
91.0541 111980.2396
91.7174 8834.7077
92.0366 6372.4642
95.0485 9455.0111
97.1980 22204.9954
98.9555 79453.7826
104.0417 7045.8542
105.0337 17756.4290
116.9660 455959.4766
119.0490 725108.3008
121.0650 36982.5026
121.9717 6585.2624
123.0438 1666877.0273
125.3290 7646.7311
136.0755 4830593.8542
137.9639 6104.6107
139.9820 1057729.3210
142.9823 6746.0313
147.0438 943729.1419
147.0553 12874.9089
155.9745 12316.5286
156.9975 185275.3802
165.0543 2280555.8958
165.0690 15268.3867
181.3995 5912.1328
182.0812 173439.3548

Name: Unknown (3.29_198.1124m/z)
Charge: 1+
PrecursorMZ: 198.1124
Comment: 3.29_198.1124m/z
Num Peaks: 50
55.0546 7681.6748
55.9344 848.6359
57.0336 1639.5798
58.0653 6463.2252
59.0732 2268.3968
67.0543 3223.2098
69.0699 13008.4795
69.8776 3278.4414
69.8896 7276.1471
71.0491 8976.5701
74.0964 5645.5702
79.0541 779.8791
80.0498 795.4550
80.9449 6811.7935
81.0696 5458.8346
82.0650 6731.4723
91.0539 1694.8650
94.0649 4918.3506
95.0729 2441.6343
96.0806 9088.0993
97.0647 1948.0693
97.1947 3894.4885
98.9556 778.6510
108.0805 10429.0242
110.0964 7947.1839
112.0756 6330.4424
116.9659 13345.6665
126.0907 1820.6995
129.0696 2155.1960
134.0964 2026.6250
136.0751 1150.3945
152.1063 10051.8144
152.1855 838.4227
154.0860 11524.6117
156.9970 2688.4330
169.9980 5891.0382
170.0809 5871.0672
170.1182 1484.0521
192.9473 4109.9225
193.9476 2140.4944
193.9915 805.7913
194.1172 14845.8540
194.9767 1747.4319
194.9963 5193.6493
195.0870 3969.7990
195.9126 1363.1663
195.9952 1991.4940
196.0969 1270.1221
197.9940 6819.7583
198.1123 234060.6329

Name: Unknown (3.33_144.0422n)
Precursor_type: [M+H]+
PrecursorMZ: 145.0495
Comment: 3.33_144.0422n
Num Peaks: 37
53.4815 782.2594
55.0061 652.2000
55.9347 47037.4180
56.6373 737.7461
56.9425 20536.9531
60.9380 1482.7931
61.8572 644.7220
62.7639 816.8207
69.8776 4487.2435
69.8872 7950.7977
71.9293 6193.4545
72.0804 757.2830
72.9372 34827.4518
73.0284 5348.3981
74.9529 4231.5186
76.2026 764.1775
77.9401 784.6992
85.0284 2738.9732
89.2444 568.0348
90.9477 34241.6634
94.2957 582.2003
97.1980 2879.7216
98.9224 582.8970
99.4986 742.7839
101.7935 705.6184
107.9498 654.6889
108.9585 3173.4908
116.9661 739.1654
117.5111 679.4187
118.9424 11670.8459
118.9673 7735.8996
119.9751 1753.4482
123.2747 700.1916
129.6915 653.2101
131.6981 622.1166
135.9449 1642.6313
136.9530 10700.5029

Name: Unknown (3.59_176.0684n)
Precursor_type: [M+H-H2O]+
PrecursorMZ: 159.0651
Comment: 3.59_176.0684n
Num Peaks: 31
55.9346 568132.4785
56.9424 17835.8184
57.8126 3498.1602
69.8777 26432.3789
71.9293 82233.9609
72.9371 329425.7500
73.9448 25844.8242
74.4028 4046.0879
77.9396 3503.2498
78.5710 3822.9451
85.0283 35452.0625
88.9682 6280.0806
89.9398 58853.1836
90.9475 137644.0278
91.0539 3854.0273
91.9552 6266.4170
97.1947 6293.3770
105.9346 7031.9219
107.9502 55942.1602
108.9581 5791.6123
113.9637 26543.4316
114.0548 5254.5264
114.9713 185330.9375
116.9660 6806.1641
125.9604 35010.4453
128.9505 164972.3750
131.9743 7438.0391
132.0652 4992.5410
135.9451 129607.6797
146.9612 86594.2969
153.9556 79093.1875

Name: UMETA00260 (C5DC | Glutarylcarnitine)
Compound Id: UMETA00260
Precursor_type: [M+H]+
PrecursorMZ: 276.1437
Comment: 3.59_276.1437m/z
Formula: C12H21NO6
Num Peaks: 25
55.9347 2697.0886
57.0339 4238.8218
58.0656 1965.6396
60.0809 21012.1250
69.8917 11090.1309
77.7858 1758.2675
80.4772 1698.6340
84.1736 1640.1077
85.0283 166791.6555
87.0439 25298.3281
97.1962 2651.2725
103.0389 3927.2646
115.0389 19173.1113
144.1013 6340.8027
167.1481 1512.3145
180.8883 2872.4175
194.1173 61820.4385
195.0876 3200.4087
196.9038 11606.6924
199.0594 2680.6475
214.9144 4238.4053
217.0699 19815.0254
224.8988 16159.0830
226.8948 6363.8262
276.1431 18425.9082

Name: UMETA00244 (C3 | Propionylcarnitine)
Compound Id: UMETA00244
Precursor_type: [M+H]+
PrecursorMZ: 218.1385
Comment: 3.62_218.1385m/z
Formula: C10H19NO4
Num Peaks: 50
57.0339 3608.2133
60.0446 36251.0501
60.0809 126546.5547
63.4535 909.2620
64.7828 783.4859
66.6002 604.9043
68.0583 1130.2142
69.3014 5907.9150
69.8926 2971.6439
70.3522 3961.2340
80.1088 558.2391
82.0174 622.7505
85.0283 1173350.2409
85.3959 871.9485
86.0964 21921.7435
87.0556 744.4629
97.1926 1490.0255
97.1980 2621.3610
98.9552 608.7943
102.0627 577.2904
105.9622 587.8365
113.3077 608.7844
116.9655 644.1979
117.1603 913.0392
120.9395 943.6440
127.9331 592.5673
129.4176 892.5841
132.1016 40572.2122
138.0561 619.7760
144.1018 32957.8118
152.4282 886.7537
156.0729 1526.3453
156.7611 571.6868
159.0649 221798.9733
173.1284 18593.4805
174.0835 631.6178
176.9323 2387.6757
183.0128 2197.9225
188.9368 650.3287
191.0584 2191.8424
194.1008 586.8038
194.1172 53815.9259
194.1623 653.2984
194.9436 32272.7227
195.0874 2431.1504
195.9100 2032.2346
203.1421 15460.2266
212.9524 732.3625
217.9588 2614.7126
218.1382 310085.6536

Name: UMETA00056 (Phenylalanine)
Compound Id: UMETA00056
Precursor_type: [M+H]+
PrecursorMZ: 166.0862
Comment: 3.66_165.0789n
Formula: C9H11NO2
Num Peaks: 28
50.7614 9935.0713
52.6847 5579.9370
54.7721 11650.1846
58.8688 11150.9189
60.5052 4300.3179
68.3913 10647.8135
69.8904 72985.0020
77.0390 5185.3701
79.0539 7544.6826
86.9381 10778.1348
91.0545 11928.5527
91.2900 4417.1968
93.0698 23102.6558
93.2545 10430.8633
97.1945 29247.3164
103.0541 367052.8750
107.0491 244897.3540
114.9707 9516.6846
120.0807 18781058.5625
124.0504 6283.1763
129.7891 5208.6934
131.0491 695557.2988
138.9860 7583.9033
142.9659 11515.7432
149.0596 307928.4937
165.9825 19204.8711
166.0731 28659.4883
166.0862 789394.7520

Name: UMETA00381 (Pantothenic acid)
Compound Id: UMETA00381
Precursor_type: [M+H]+
PrecursorMZ: 220.1177
Comment: 3.66_219.1105n
Formula: C9H17NO5
Num Peaks: 50
51.0896 658.6698
52.3714 616.4671
55.0546 937.3751
55.6577 669.6712
57.0700 2998.1497
67.0543 3084.1758
69.0698 2969.7217
69.8796 3801.8278
69.8921 6221.9366
70.0286 976.1239
72.0443 2686.5737
77.6865 582.6558
78.8750 772.5699
79.0536 601.9266
81.0696 724.4267
85.0139 714.0259
85.0644 3830.4946
90.0549 25434.0067
93.0694 1183.3959
95.0491 1751.6886
96.0153 591.2714
97.1977 2753.8562
98.0232 3591.2188
103.0746 1311.9708
105.0699 798.7743
107.0850 2207.0986
109.1004 1328.5226
111.0800 5964.1461
112.2159 694.2064
116.0335 2282.0609
116.9659 1435.7828
119.0851 1799.2152
121.0646 4251.7941
124.0750 1865.3894
131.5631 627.5221
133.1006 667.4252
142.0860 711.5138
147.6768 617.0557
153.0910 954.8250
160.1132 665.1699
175.1478 1899.9327
184.0975 2743.0824
193.1589 1815.8715
194.1174 9857.9481
195.1227 34688.2118
196.9324 2371.6514
202.1073 3240.8437
204.1457 2011.6514
205.1581 602.2264
220.1174 1359.8788

Name: UMETA00164 (Kynurenin)
Compound Id: UMETA00164
Precursor_type: [M+H]+
PrecursorMZ: 209.0920
Comment: 3.71_209.0920m/z
Formula: C10H12N2O3
Num Peaks: 50
50.8222 1110.8943
57.9599 1249.5159
60.7070 1137.5084
65.8712 1160.5735
69.8801 7254.7380
69.8886 11438.7642
71.9978 1057.9082
73.0920 1305.1296
74.0235 41709.5990
80.9453 2679.7285
88.0394 8952.6558
94.0650 265409.8249
94.0702 1418.9268
94.3789 1044.0265
97.1978 6015.5725
98.9554 2756.8901
99.0073 27366.0951
101.2111 1184.1361
104.0496 1059.7980
114.9705 7367.3324
115.9700 16097.6022
116.9661 74482.4141
118.0648 22421.5052
120.0443 48337.4362
125.9538 1548.0286
126.9502 30400.3887
132.0445 1387.5671
136.0755 101335.1006
139.9816 4799.0636
141.2169 1086.4028
142.9656 24302.5049
143.9647 47102.4583
144.9609 271942.5208
144.9701 1663.7951
146.0598 133209.8394
150.0548 63373.1968
163.0860 26604.4479
164.0700 14401.2021
167.9766 47318.8490
174.0546 81467.6178
185.2531 1029.7880
185.4443 1064.3725
192.0653 117861.8250
192.0995 2245.2094
194.1175 43002.5345
195.0876 5073.4380
197.6355 1196.5984
203.9370 2401.5269
206.9055 1167.2288
209.0916 6847.2227

Name: UMETA00361 (5-Hydroxytryptophan)
Compound Id: UMETA00361
Precursor_type: [M+H]+
PrecursorMZ: 221.0919
Comment: 3.79_221.0919m/z
Formula: C11H12N2O3
Num Peaks: 50
53.3370 1138.3892
54.7022 973.0153
55.0545 2541.2180
58.0653 2929.0659
60.3992 994.1602
69.0700 1441.4624
69.8779 4403.4702
69.8919 5731.1362
78.9499 4693.9915
80.9447 3682.3156
81.0697 969.9725
83.0853 1328.6150
91.0540 5660.0778
94.0650 2267.7356
97.1960 2861.3898
99.0439 3954.7002
103.0535 1111.7363
104.0490 2855.5338
107.0491 1267.8131
111.0801 7136.1292
114.9706 9302.0537
116.9663 7172.1604
119.0490 1008.4274
119.0854 1169.4337
121.0643 6163.4059
130.0649 54550.7687
132.0442 47635.3246
132.0537 1290.8848
137.0959 1143.9684
153.0907 1447.6472
155.0021 8202.1309
157.0755 16326.3273
158.0597 45565.8411
163.0387 6745.5303
175.0863 61370.6165
175.1469 1028.9115
188.0945 1024.0481
193.1594 2287.3593
194.1172 29203.1746
195.0325 1002.6743
195.0869 10394.7432
195.9116 1740.5177
195.9952 1013.1439
196.1332 3048.1066
196.9319 6642.1873
197.0495 1175.4921
203.0797 1048.8531
204.0644 1215.8069
216.8907 6325.1656
221.0914 2785.6432

Name: Unknown (3.88_103.0389m/z)
Charge: 1+
PrecursorMZ: 103.0389
Comment: 3.88_103.0389m/z
Num Peaks: 23
54.4180 673.5155
55.2406 619.5032
58.0655 889.2063
58.1968 585.0144
58.8179 597.0065
59.1763 554.9429
61.0285 9356.3861
61.9018 636.9691
61.9280 4564.9406
62.9292 16237.9183
64.3468 575.6769
66.7846 678.4836
69.8763 3670.3073
69.8878 6490.0286
71.0128 2932.5716
72.9369 4695.8218
77.4214 603.7360
85.0284 20989.1204
87.5587 583.2384
89.9749 577.0720
90.9472 907.8937
96.4187 509.0580
97.1937 2757.9488

Name: Unknown (3.88_133.0859m/z)
Charge: 1+
PrecursorMZ: 133.0859
Comment: 3.88_133.0859m/z
Num Peaks: 13
71.7023 2168.7581
71.7073 1215.1294
72.7839 803.1031
77.2928 1021.3503
79.0548 910.3599
86.0963 2277.6021
89.0599 819.8475
91.0547 853.2805
92.8999 1078.4700
102.9327 936.0594
105.0699 4148.9645
106.0651 1512.0908
133.0652 816.8386

Name: Unknown (3.93_182.0811m/z)
Charge: 1+
PrecursorMZ: 182.0811
Comment: 3.93_182.0811m/z
Num Peaks: 50
55.0546 15642.6385
69.8798 3027.4335
69.8881 2207.3968
70.4543 2645.9023
80.9452 21778.9889
83.0493 1582.1018
86.7387 818.2922
97.1952 4054.2614
98.9557 35487.2044
101.0599 1467.8050
102.9483 1499.3826
105.0336 34625.5501
108.0445 91037.2795
108.0516 945.7950
111.0441 15585.3356
111.0747 1797.2539
113.9565 872.2529
113.9638 13404.8926
114.9482 13940.6976
115.9704 978.6102
116.9663 433097.2780
121.9720 1989.9852
123.0806 1107.6888
129.0547 4412.6521
131.9748 2021.7275
132.9587 17235.9896
136.2432 797.3032
137.0592 1720.2374
137.9643 11878.3962
138.0664 4686.8077
138.9864 1980.0229
139.0701 18758.5124
139.9823 765208.3359
140.0710 20294.6811
140.1076 798.4360
141.0020 3506.7580
141.9593 4435.4609
142.9821 22320.7311
150.0548 2277.9373
154.0867 42704.4309
155.9749 57748.0026
156.9976 148091.3724
157.0108 1388.0259
159.0135 14117.1152
159.9463 11691.6564
170.5285 5468.6842
177.9565 24468.7292
180.0132 3865.4943
182.0300 3958.7160
182.0761 230273.6126

Name: Unknown (3.96_154.0862m/z)
Charge: 1+
PrecursorMZ: 154.0862
Comment: 3.96_154.0862m/z
Num Peaks: 50
55.0184 1476.9024
55.0546 15059.3322
55.9347 67149.8719
56.0498 7939.8281
58.0654 79022.8099
66.9384 1443.3007
67.0542 3881.3021
67.9349 1769.8530
68.0496 5832.6639
68.9428 5065.6143
69.0336 550138.3203
69.0701 6660.9744
69.8904 2905.9020
70.0651 17356.6133
71.0492 13796.2917
71.6864 834.4223
71.9293 6582.3289
72.9372 10520.9847
73.9451 844.1545
79.0542 2563.4133
80.9451 8109.8110
81.0699 10094.4591
83.0728 1113.3560
83.0856 15793.7376
86.0601 4716.3888
90.9477 8004.5179
91.0541 1562.8040
95.0491 2959.3779
96.0809 10829.5352
97.1975 1066.7910
98.0601 31580.1836
98.0964 132162.5880
98.9554 859.3235
102.9484 1009.1827
108.0809 6968.7229
109.0648 3947.9315
109.9589 1859.8848
113.0596 1657.1388
113.9641 1987.4725
114.9715 20278.9577
116.9662 16509.5592
126.0913 1956800.2214
127.0856 2530.4316
127.1043 1417.3940
128.9507 19573.0811
130.9825 3375.0190
131.9746 2640.9646
131.9868 11341.7972
146.9610 11583.6800
154.0867 6302.4211

Name: UMETA00246 (C4 | Butyrylcarnitine)
Compound Id: UMETA00246
Precursor_type: [M+H]+
PrecursorMZ: 232.1541
Comment: 4.04_232.1541m/z
Formula: C11H21NO4
Num Peaks: 45
50.3524 586.4905
57.0339 6707.8151
57.1648 560.4501
57.9249 539.4790
59.5422 567.3343
60.0812 27044.2826
63.5870 554.9451
65.0386 759.2677
66.4444 512.6102
69.8763 554.0485
69.8814 3161.6536
69.8883 1263.2322
69.8934 6208.2633
71.0495 689.2595
71.7956 526.1899
74.1261 497.0529
74.9429 603.1875
75.3314 603.8381
84.0809 1861.9845
85.0286 471114.3779
85.4582 569.1925
95.0601 645.1216
97.1947 3019.6067
97.2002 589.0343
100.1916 630.2483
134.0602 9943.6038
144.1020 6169.0927
152.0716 2884.9536
166.9461 860.4788
173.0813 28179.8464
193.9898 633.7455
194.1181 28814.8792
194.4344 655.2180
194.9091 20766.6249
194.9430 1675.7307
195.0866 13762.2051
195.1041 1083.3606
195.1235 1265.8015
195.9943 848.6991
196.0930 893.9884
196.1337 681.4690
209.8976 1564.9141
212.9209 6894.4784
222.9042 16190.9180
232.1546 34425.8336

Name: Unknown (4.31_246.1696m/z)
Charge: 1+
PrecursorMZ: 246.1696
Comment: 4.31_246.1696m/z
Num Peaks: 38
51.3739 707.8572
51.3923 607.3604
52.1780 595.9993
54.5079 530.1540
55.9347 713.5316
56.0398 574.8960
59.1467 623.5363
69.8805 3596.0409
69.8946 7192.6262
72.9374 663.5879
73.2782 527.6496
73.8307 655.2902
88.8988 572.9017
94.8990 561.7955
97.1953 2440.4024
99.0440 877.0559
111.4962 582.6658
116.9661 634.6238
117.2498 525.6932
120.8918 545.6991
131.9868 923.3510
133.9253 573.6263
185.2740 610.0822
193.0714 631.2221
193.9902 924.7025
194.1183 13095.8727
194.9098 719.0026
194.9428 4790.4176
194.9960 654.6113
195.0134 1814.3569
195.1062 1803.0229
195.1375 936.2395
195.9126 1847.5309
196.1691 951.9302
204.9280 4240.6357
213.0243 1433.9672
222.9035 613.2296
223.9015 588.0184

Name: UMETA00074 (Tryptophan)
Compound Id: UMETA00074
Precursor_type: [M+H]+
PrecursorMZ: 205.0971
Comment: 4.33_204.0898n
Formula: C11H12N2O2
Num Peaks: 50
57.0702 1165.0597
68.0498 11627.6299
69.4682 5090.5654
69.8792 15041.2695
69.8907 5688.5742
74.0239 65058.8815
91.0546 21710.4124
97.1946 8914.0883
105.0705 1058.6536
114.0556 1131.4846
115.0546 33364.1178
116.8650 1067.0327
116.9660 1570.3273
117.0579 20563.1882
117.0702 77806.7487
118.0654 1243244.7422
119.0614 1391.0627
119.0853 1357.0619
119.3644 3042.9020
121.0286 2388.9491
130.0654 95922.1733
132.0811 339685.5605
139.9826 1371.4987
142.0656 130683.5651
143.0734 138668.5495
144.0448 16266.9577
144.0812 740459.9844
144.0900 5929.4084
146.0604 2902064.5938
147.0809 5648.7562
148.0822 3564.6559
149.0238 18675.8698
155.0610 19313.2630
156.9980 2774.5474
159.0921 251038.2272
160.0762 44966.2357
170.0605 274830.2969
176.9324 3190.4740
185.3379 9248.7026
188.0710 354533.7142
188.0883 1413.3195
193.9910 1187.8490
194.1181 11056.1533
194.1553 4207.3038
194.9088 11272.2549
194.9438 20951.3026
195.0868 31766.8698
195.1034 1090.4904
195.9089 25776.9922
198.8101 1074.9930

Name: Unknown (4.35_137.0597m/z)
Charge: 1+
PrecursorMZ: 137.0597
Comment: 4.35_137.0597m/z
Num Peaks: 21
55.9349 2432.7148
59.1353 1976.5675
64.8552 2447.1040
67.0543 9549.2627
69.6608 15529.1689
75.4914 2005.2665
78.9496 9556.5527
79.0542 13049.7969
81.0700 49645.1301
91.0542 20326.7168
93.0693 2280.5989
96.9374 2171.4426
97.1950 4715.2651
109.0649 45656.8555
114.9481 2092.2173
114.9710 25194.2207
116.9662 2392.4607
119.0490 11720.5000
121.0886 2377.2178
137.0245 2533.0642
137.0593 11840.2070

Name: UMETA00050 (N-Acetylleucine)
Compound Id: UMETA00050
Precursor_type: [M+H]+
PrecursorMZ: 174.1125
Comment: 4.36_174.1125m/z
Formula: C8H15NO3
Num Peaks: 16
59.5669 1781.1156
69.0700 2613.1550
69.8817 10363.0781
70.8932 2014.8964
76.1118 1670.4359
81.0700 4022.1311
97.0647 2072.7251
97.1980 2064.5105
98.0598 2623.4819
98.9842 73578.8359
119.0858 2078.8462
126.0912 3695.3418
128.0963 2796.6958
131.0860 1845.0415
139.0748 1767.5597
174.0910 2186.2122

Name: Unknown (4.39_230.1385m/z)
Charge: 1+
PrecursorMZ: 230.1385
Comment: 4.39_230.1385m/z
Num Peaks: 29
54.3740 768.4716
55.0544 2940.0518
59.7837 824.7431
59.7968 792.1079
67.7975 833.9464
69.0700 1152.7642
69.7260 827.5462
69.8822 6205.2266
69.8906 6030.0190
71.8427 960.1319
78.9970 942.3367
79.1391 892.5488
86.2013 823.9266
97.1958 2650.5332
99.8653 800.4406
100.7400 842.5084
101.1014 903.2314
102.0629 959.0084
114.2949 888.8047
116.9660 2971.4740
130.0656 6488.0820
131.0732 1449.9105
194.1179 1974.4849
194.1529 919.8828
195.0635 1637.5114
195.1040 1708.5592
195.1378 1202.0367
195.9940 821.4567
196.0916 918.6452

Name: Unknown (4.42_342.1166n)
Precursor_type: [M+H]+
PrecursorMZ: 343.1232
Comment: 4.42_342.1166n
Num Peaks: 13
64.4336 1920.8098
69.8966 9919.7073
97.1950 3942.4250
130.2819 1798.4451
139.9823 1880.7061
191.0758 2363.5674
219.0714 14495.4521
282.3129 1823.5127
293.0352 11060.0459
317.0365 1617.3246
321.0304 3567.0081
325.1122 3292.5203
343.1234 14894.8008

Name: Unknown (4.46_130.0499m/z)
Charge: 1+
PrecursorMZ: 130.0499
Comment: 4.46_130.0499m/z
Num Peaks: 34
50.1586 1057.9907
50.6089 1083.8988
51.7212 968.0416
51.8862 1123.2129
52.5924 1128.2125
52.7412 1023.0567
53.0679 926.4789
55.1426 953.9277
55.5433 777.5495
56.0498 31373.0638
61.5524 1198.2966
69.3442 1813.0822
69.3493 9142.5552
69.8885 3755.8206
69.8960 7519.6413
71.9294 45884.6094
72.9372 20122.7786
74.0964 2413.5933
75.0262 4951.2381
84.0444 442333.2630
84.0499 8344.8990
88.9867 1009.2843
89.9400 26750.7826
90.9475 3800.0266
91.0537 4027.8731
92.9247 1001.7222
93.0362 4587.3550
97.1929 4519.0878
97.1985 4110.5436
104.5453 987.6850
107.9501 26143.6263
109.9625 1080.8959
125.9608 13099.6439
130.0499 21614.3203

Name: UMETA00010 (alpha-N-Phenylacetylglutamine)
Compound Id: UMETA00010
Precursor_type: [M+H]+
PrecursorMZ: 265.1179
Comment: 4.46_264.1106n
Formula: C13H16N2O4
Num Peaks: 38
54.7589 5349.7712
54.9243 5086.0785
60.5758 5411.4300
69.8816 32811.7188
69.9853 26963.6380
80.6754 4255.2731
82.8495 5895.2760
83.0605 87475.7708
84.0444 306866.5729
85.6122 4085.3451
91.0542 230187.6823
91.9446 6008.5117
92.8450 4674.6478
93.5208 4137.4473
97.1963 15184.2813
101.0711 140106.3307
102.0549 45966.0814
112.3998 5910.2038
115.8190 5528.1816
128.2621 4577.3698
129.0658 793359.6667
129.0755 5522.5605
130.0498 5315105.5469
136.0756 760291.1432
141.2846 6254.2396
141.5170 5199.7441
147.0764 849836.5475
167.9841 3973.7357
180.2373 5138.2806
185.8111 5829.7363
196.0902 7049.8913
219.1128 95860.9375
220.0964 36259.8861
222.3972 5645.2865
230.9020 6001.5384
247.1073 138370.1956
248.0913 194928.6445
265.1180 261176.0313

Name: Unknown (4.55_262.1645m/z)
Charge: 1+
PrecursorMZ: 262.1645
Comment: 4.55_262.1645m/z
Num Peaks: 24
53.8996 1052.8463
67.2769 983.6520
69.8846 4685.6196
69.8936 5214.1606
70.0651 31264.3438
70.5791 948.8074
72.9371 3090.4559
75.2302 846.2932
76.9020 916.0448
80.4335 866.9421
90.0300 812.4897
97.1947 2835.4259
126.6896 756.7471
180.8878 8214.9438
195.9078 886.4492
196.9040 22604.1670
196.9325 2296.3283
208.8841 1784.8560
214.9138 3793.9218
223.9009 784.4402
224.8981 19865.3438
226.2033 807.0684
226.8935 5962.8678
246.1704 837.5609

Name: Unknown (4.73_246.1696m/z)
Charge: 1+
PrecursorMZ: 246.1696
Comment: 4.73_246.1696m/z
Num Peaks: 18
50.4212 911.7053
65.9644 858.8736
69.8861 5282.4695
69.8965 4127.8511
79.0543 991.3020
84.6090 844.6356
91.0540 1059.4636
97.1953 3018.8185
114.2579 824.5233
116.9662 1513.5480
134.7657 873.0607
190.4090 825.1435
194.9434 3449.0081
195.1043 1215.7877
196.0889 2449.0867
202.8251 858.9719
204.9274 3150.6947
222.9022 2039.5552

Name: Unknown (4.75_244.1540m/z)
Charge: 1+
PrecursorMZ: 244.1540
Comment: 4.75_244.1540m/z
Num Peaks: 26
52.2768 550.9512
54.6542 603.2570
55.0654 558.9844
55.9349 6621.8101
59.7521 526.8923
60.9456 664.8506
61.7264 605.6772
69.8816 2749.8965
69.8919 6449.9106
74.1335 609.8121
79.0213 551.6742
97.1980 4623.7929
99.3927 491.5660
119.1025 572.8285
138.9888 536.8492
143.0594 534.7284
150.0435 649.3283
158.7094 495.5618
158.7265 556.2455
188.8962 520.0335
189.9038 800.7907
194.1169 1501.6050
195.1052 620.9495
203.8840 3692.8604
221.8934 2090.6343
243.8780 518.1153

Name: Unknown (4.78_232.1541m/z)
Charge: 1+
PrecursorMZ: 232.1541
Comment: 4.78_232.1541m/z
Num Peaks: 18
69.8825 5066.8755
69.8959 4148.1372
76.5323 844.5644
87.8950 831.6790
89.2449 913.3685
91.0543 5250.8483
97.1977 3441.3368
173.0970 842.9644
177.0267 794.0859
189.1284 858.0684
194.9092 19202.1777
194.9429 1037.4315
195.1040 1066.6564
196.0910 1174.4812
196.3492 843.5713
209.8962 1255.6290
212.9187 8382.3555
222.9038 16383.8618

Name: Unknown (4.78_280.1539m/z)
Charge: 1+
PrecursorMZ: 280.1539
Comment: 4.78_280.1539m/z
Num Peaks: 50
52.6464 614.9543
53.7251 546.0345
54.9365 777.9902
57.0339 8456.8656
58.0656 2583.0493
60.0811 40356.6536
63.9891 666.3322
65.0387 776.0803
65.7712 586.0983
67.0545 604.8434
68.4562 512.7338
69.8952 6396.5700
70.1351 557.8041
71.6920 562.1260
72.1477 565.4730
75.2274 547.6158
77.3137 536.4515
79.0542 584.2461
80.9452 6330.7492
84.0808 3739.7426
85.0285 512003.5967
91.0487 764.9516
91.0543 66022.8006
92.6545 638.8232
96.8106 541.9328
97.1977 2084.6379
98.9560 1026.8104
111.7119 551.3573
116.9661 14118.8105
121.0227 607.2973
126.4100 565.4386
144.0409 529.3916
144.1018 10884.2402
144.9613 9051.9831
149.0233 913.6283
150.0264 833.2243
155.9599 568.2015
165.0026 750.8233
183.0135 1234.7264
195.1037 1519.5535
199.9714 585.5424
203.2746 610.1930
217.4597 594.7744
221.0807 16937.5999
223.1566 602.0880
233.2732 544.4597
242.4537 634.1962
243.8627 660.9637
250.0582 625.2173
280.1543 41036.1694

Name: Unknown (4.82_452.3358n)
Precursor_type: [M+H]+
PrecursorMZ: 453.3431
Comment: 4.82_452.3358n
Num Peaks: 50
52.1460 582.8263
55.0546 33253.4614
57.1205 569.4068
57.3790 560.4654
60.4219 610.1439
63.9798 571.2148
69.8894 2791.5710
69.9045 6534.7087
76.5330 556.1749
81.7964 582.8314
82.0653 5973.1779
83.0489 605.9791
83.0856 19990.2955
93.7830 684.5737
97.1927 2997.1399
97.1984 1023.3306
98.0962 756.6066
98.5002 574.6365
100.0755 4221.9185
100.1121 106508.4824
100.1172 889.0444
111.0440 7478.7765
112.0756 801.5172
126.0913 1392.3280
128.0706 3115.4978
139.0869 1687.7638
140.0703 646.0201
143.4678 565.6586
143.8014 566.6392
148.3526 567.3313
150.5049 577.9033
182.1541 28405.9202
183.1576 3934.5072
194.1172 1040.2106
202.2225 627.1659
207.1506 651.0227
209.1651 20888.8249
210.1483 22903.3424
210.1680 8812.9076
211.1519 8605.8571
226.1912 7706.0306
227.1945 5352.8525
256.9720 592.7230
273.4291 607.4495
281.2736 589.6119
322.3477 607.3606
327.2833 2770.7876
336.2245 1671.8119
337.2311 8405.5113
436.3361 27477.4165

Name: Unknown (4.90_148.0376n)
Precursor_type: [M+H]+
PrecursorMZ: 149.0448
Comment: 4.90_148.0376n
Num Peaks: 50
53.1828 3049.2900
57.6889 3053.3610
61.0107 57505.9935
62.2981 2837.4668
62.9900 2780.1576
63.9425 62872.9570
64.0953 2947.4749
65.0388 69733.8774
71.2738 2501.0055
71.6920 3314.4033
71.7062 6210.4787
72.9373 2298.1707
73.0469 306338.2005
74.0501 5767.0521
75.0262 253220.0313
77.0055 2356.3519
79.0213 10756.0501
79.9489 88263.1917
80.9452 994841.6458
81.9531 2031.6408
82.3535 1716.4606
82.6000 1603.2749
83.1520 3512.7243
91.0575 212151.6494
93.0369 134799.1094
97.1949 6520.9250
97.9595 17935.5394
98.9557 264226.1563
108.9512 5939.1673
109.4176 1917.9399
111.0443 2861.7624
113.9634 2188.3963
115.9701 70190.6663
116.9663 810207.9375
120.9776 8502.3825
121.0287 46139.5495
121.0397 22622.6862
125.9656 3891.9222
126.9504 2754.2070
126.9618 17542.7021
133.0139 45311.9661
136.0005 3543.8014
138.9867 26820.1100
139.9822 304601.9896
139.9935 2535.4837
141.9975 2366.1589
143.9646 1941.4709
144.9612 104455.4557
149.0235 86070.8438
149.0447 65580.1735

Name: Unknown (4.90_148.0376n)
Precursor_type: [M+ACN+H]+
PrecursorMZ: 190.0714
Comment: 4.90_148.0376n
Num Peaks: 23
69.8945 42836.5078
73.0467 27156.5977
75.0259 9739.1074
79.9488 42329.1172
80.9451 477130.7188
97.1948 13548.9326
97.9592 9826.3945
98.9557 141465.8438
102.1928 6405.7124
115.9700 27645.2051
116.9662 281488.6250
125.9659 8034.4434
126.9505 9009.3643
138.9857 8464.9844
139.9822 179345.1719
144.9607 47422.8789
149.0450 24925.4043
151.0241 102202.7656
165.2587 6903.7104
167.0547 35969.5508
169.0214 8356.7617
169.0348 163115.0938
173.9184 12028.7266

Name: Unknown (4.90_177.0397m/z)
Charge: 1+
PrecursorMZ: 177.0397
Comment: 4.90_177.0397m/z
Num Peaks: 50
55.9347 974.4600
58.0655 4043.9644
59.0494 1124.8653
61.0106 12624.7936
64.4913 1056.3529
65.0385 4354.8499
68.0496 16371.5990
69.8850 5611.0710
69.8932 10336.6038
73.0469 197797.3809
74.0501 2579.2450
75.0261 84817.2922
77.0057 1110.3821
86.0599 23099.9622
90.2022 1054.9761
91.0580 102762.2113
93.0368 36805.6699
93.0699 3265.2927
97.1949 2699.1073
98.9842 27367.6842
104.9814 1149.4135
107.0522 1663.2365
114.0546 3239.7943
119.0491 14406.4453
120.9778 1192.4097
121.0283 6204.3799
121.1010 2147.8438
131.0851 1808.3928
132.0659 1374.3590
133.0136 24492.0592
134.0209 1175.0702
135.0910 1094.5924
138.9880 3187.4864
149.0247 29447.5618
149.0449 274943.3789
149.0576 2217.0453
151.0242 591466.5638
154.9698 1009.5974
156.9983 1853.6290
159.7130 3928.6635
160.0615 1860.8263
162.0166 3512.0151
164.7540 981.4496
167.0555 823513.0078
169.0347 1206601.9967
170.0519 1732.2498
171.0140 3645.3853
174.9218 4067.0728
176.9327 2864.1759
177.0398 1083508.4557

Name: UMETA00261 (C6 | Hexanoylcarnitine)
Compound Id: UMETA00261
Precursor_type: [M+H]+
PrecursorMZ: 260.1852
Comment: 5.04_260.1852m/z
Formula: C13H25NO4
Num Peaks: 44
51.7626 581.0888
52.8799 549.7361
56.5593 536.5972
57.9614 551.8135
58.4776 566.6412
60.0811 16781.1042
60.2483 614.0722
63.9378 606.7970
63.9570 604.9385
64.8309 543.8569
69.3556 558.4318
69.8840 3015.7306
69.8975 5910.1771
71.0854 1014.8315
72.4370 527.8043
75.2618 536.2096
77.6658 539.0166
85.0285 189489.0911
88.8055 581.4538
96.9599 503.6286
97.1968 4114.7801
99.0805 9211.3994
108.8620 660.4644
112.2220 582.2865
117.0901 647.8729
120.6765 609.6274
129.5061 617.5889
139.3745 537.5347
141.1838 528.7384
144.1016 1976.3660
194.1182 705.9004
194.9431 3514.6775
195.0705 1585.3401
195.1046 1178.2004
196.0907 1357.1524
197.4786 464.5037
200.1643 803.3967
201.1121 18164.2094
219.8488 543.7131
222.9029 8809.4689
226.1135 491.9403
249.6160 526.1244
256.8799 671.7933
260.1853 32280.3799

Name: Unknown (5.22_153.0546m/z)
Charge: 1+
PrecursorMZ: 153.0546
Comment: 5.22_153.0546m/z
Num Peaks: 50
53.9395 796.3318
65.0388 15533.6068
67.0543 4798.7983
68.9428 8033.3592
69.0698 2431.0205
69.8817 4080.3402
69.8921 6553.7913
71.0492 1772.9028
71.9290 2253.5016
72.0442 1790.8768
79.0542 3835.4403
81.0337 1684.2774
81.0698 1137.3354
82.9332 12928.7399
83.0855 753.8118
90.6404 731.3625
91.0543 707.6278
93.0279 917.1729
93.0335 62967.2634
93.0700 12027.9544
95.0490 5109.4718
95.0854 2382.1223
97.0287 1535.3767
97.0647 5932.9805
97.1959 3346.3854
107.0485 4981.2956
107.0854 12655.0967
108.9606 666.5139
109.0647 2424.0796
109.1010 4572.1469
109.9585 9041.4731
110.0362 5453.0187
111.0440 62314.1607
111.0804 10274.1797
116.9659 7918.0291
118.9551 2480.7055
118.9628 6488.9424
121.0288 659.8079
125.0597 79414.4747
125.0962 2867.3237
126.0901 2339.5725
130.9661 7971.4310
130.9816 6022.6737
135.0807 7180.3123
135.1169 3183.0421
141.9701 2470.5743
142.9782 6368.5363
147.9570 3141.8993
148.9766 8158.0368
153.0544 37802.8766

Name: Unknown (5.33_246.1697m/z)
Charge: 1+
PrecursorMZ: 246.1697
Comment: 5.33_246.1697m/z
Num Peaks: 19
53.9021 818.7253
69.8867 4598.1226
69.8971 3867.3655
72.8682 753.4598
77.2364 856.7550
80.9452 906.7809
97.1951 3370.3881
98.2598 803.8350
100.9927 767.1359
115.8493 845.1841
116.9661 2569.5736
149.3970 828.5862
169.6815 798.8790
194.1171 1529.7494
194.9087 3051.6024
194.9430 3421.0178
195.1053 2115.2034
195.1382 1430.7745
204.9279 3776.7250

Name: Unknown (5.56_286.2008m/z)
Charge: 1+
PrecursorMZ: 286.2008
Comment: 5.56_286.2008m/z
Num Peaks: 13
69.8892 12353.1802
71.7253 1715.2301
75.0229 1714.3877
77.8658 1732.5070
89.0520 1707.1741
97.1950 3658.0125
129.0104 3582.7180
139.0056 17277.3359
174.9616 7285.7529
194.1167 1646.3463
195.1375 3907.1487
196.0896 2829.7134
276.8750 2833.3530

Name: UMETA00266 (C8:1 | Octenoylcarnitine)
Compound Id: UMETA00266
Precursor_type: [M+H]+
PrecursorMZ: 286.2008
Comment: 5.79_286.2008m/z
Formula: C15H27NO4
Num Peaks: 31
50.9141 817.6602
55.0545 10678.4448
55.0603 928.7548
57.0337 5017.4653
60.0810 21427.5879
61.8125 881.7712
63.3833 983.8281
69.8970 11294.7998
72.9761 901.9993
83.0854 3780.3764
84.0809 1028.1592
85.0284 311090.3038
85.6257 849.1654
86.4948 825.6097
97.1010 10237.2212
97.1953 3219.4053
103.9846 843.9327
105.0333 915.0051
118.7177 736.1619
125.0958 1280.9344
129.0099 4641.1459
132.5437 837.9896
139.0056 17489.5166
144.1013 2580.4414
174.9618 2639.6111
194.1180 2313.4657
195.1370 1094.9470
196.0910 871.2128
227.1272 9465.3735
276.8761 2652.7725
286.2007 23647.9825

Name: Unknown (6.05_153.0546m/z)
Charge: 1+
PrecursorMZ: 153.0546
Comment: 6.05_153.0546m/z
Num Peaks: 50
51.0472 2002.5872
64.7190 1610.5485
65.0389 2131.3501
67.0544 2381.4624
68.9427 9507.6182
69.0701 13460.7725
69.8907 7074.6582
71.9291 1932.2444
79.0541 3646.3032
79.1986 1773.8386
81.0699 2873.0337
82.9334 13119.5762
82.9417 3002.3352
83.0490 3744.9072
93.0333 6639.1128
93.0697 10932.5156
94.0412 17348.4063
95.0491 7524.3643
95.0855 3691.1387
97.0279 2569.4495
97.0644 10795.7695
97.1984 2291.6960
107.0489 3410.6919
107.0854 11574.6367
109.0648 91389.8184
109.1008 3529.6641
109.9585 8551.4004
111.0439 6763.4888
111.0803 7273.2656
112.9755 2009.0120
115.9697 1950.5658
116.9659 8170.4165
118.9426 2116.8103
118.9541 2804.4175
118.9626 3660.3276
121.0288 1843.9434
125.0596 3665.3838
126.0909 2114.4541
130.0806 1637.5647
130.9663 4033.3154
130.9816 8208.5068
135.0440 33559.4141
135.0801 6883.2036
135.1169 16216.2197
137.2189 1610.3420
141.9700 3708.0291
142.9785 3389.4470
147.9565 2728.0881
148.9764 6848.5015
153.0545 34695.8894

Name: UMETA00159 (Indoleacetic acid)
Compound Id: UMETA00159
Precursor_type: [M+H]+
PrecursorMZ: 176.0706
Comment: 6.08_175.0633n
Formula: C10H9NO2
Num Peaks: 50
51.6067 558.7538
53.0393 573.5120
53.9522 585.7807
55.0545 683.2147
55.9348 2742.9095
56.4092 566.1363
59.0496 1345.6484
65.0387 15154.5879
65.5687 543.0901
65.6415 546.1360
67.0547 1465.2293
67.3807 570.6497
69.8866 3692.3763
69.8926 6436.1566
71.9293 564.0951
72.9374 2536.7426
77.0389 1447.6596
79.0543 5795.5499
80.9452 1008.4421
81.0693 604.2994
83.5415 575.6281
91.0539 10545.1842
93.0702 2811.9421
94.8998 2321.8050
95.0492 9443.3014
97.1953 3236.1230
98.9842 28304.3861
103.0479 1033.6457
103.0543 65213.9623
104.0497 821.6779
105.0446 2512.8097
105.0698 901.5596
108.2705 613.3334
114.9719 575.2775
115.0540 555.6242
116.9660 728.7153
117.0572 2535.4671
121.0288 3528.1067
121.0393 3820.7867
128.0498 651.7938
128.0931 591.8391
130.0652 269465.7936
130.0732 2364.7389
131.0845 627.3108
149.0235 4374.0364
156.3768 573.4959
157.3697 547.5619
163.1314 550.9293
167.2532 581.5887
169.0343 2901.7913

Name: Unknown (6.11_260.1852m/z)
Charge: 1+
PrecursorMZ: 260.1852
Comment: 6.11_260.1852m/z
Num Peaks: 13
67.7803 1855.9619
69.8890 9640.0166
76.4415 1611.0079
97.1959 3721.3704
107.1043 2378.6238
139.0757 2057.0520
194.9084 1857.3875
194.9426 3034.0532
196.0910 2267.3330
204.8932 1879.5211
211.9965 1639.7740
222.9030 12409.2441
238.0554 3744.6509

Name: Unknown (6.43_170.1306n)
Precursor_type: [M+H]+
PrecursorMZ: 171.1379
Comment: 6.43_170.1306n
Num Peaks: 50
55.0546 19881.8717
57.0340 769.3725
61.0287 3434.0021
65.0390 682.1986
66.5501 645.2738
67.0544 47526.9814
69.0702 14650.8122
69.8847 3467.9173
69.8918 7137.1335
71.0493 31324.1100
71.9295 3999.2010
72.0445 39864.7753
72.9372 2779.6144
79.0543 2461.1168
80.7431 662.7307
80.9451 2915.9662
81.0699 7811.9905
82.6778 609.1908
82.9418 8656.2310
83.0855 12845.0205
85.0647 2097.9514
89.0710 21843.3118
89.9398 1482.1418
91.0544 3127.2943
93.0698 18359.3773
95.0799 1038.1501
95.0855 94334.6632
95.0921 711.9029
97.0649 6339.8590
97.1947 1970.9052
100.9524 2325.0509
107.0856 11465.9277
107.9502 2470.5309
109.1010 14969.3678
111.1171 2915.4982
116.9659 8477.4909
118.9630 19777.6439
128.0622 2423.5277
130.9664 1382.4115
135.1168 7699.1216
143.0854 973.5390
146.9583 4543.5065
148.9770 6357.6322
151.0350 657.5847
153.1272 13100.0511
161.9358 752.9504
164.4392 739.4131
171.0994 2865.1993
171.1166 604.2836
171.1366 3527.9841

Name: UMETA00265 (C8 | Octanoylcarnitine)
Compound Id: UMETA00265
Precursor_type: [M+H]+
PrecursorMZ: 288.2164
Comment: 6.77_288.2164m/z
Formula: C15H29NO4
Num Peaks: 41
57.0339 9423.9702
57.0703 14472.8340
59.1659 548.5895
60.0811 34620.0169
66.3517 556.7780
66.8642 549.7476
67.0545 2625.2415
67.4816 556.0049
69.8907 3738.5732
69.8973 6812.9300
71.0080 650.6818
75.0230 1123.5595
75.6241 545.0020
81.4908 588.4985
83.7396 618.3673
84.0808 3069.5391
85.0285 484371.1973
87.4263 500.8745
87.9075 516.1209
97.1259 538.9657
97.1974 2763.8048
107.6599 612.3517
122.6220 535.6630
125.1930 590.0096
127.1119 14041.2435
129.0103 1481.6200
139.0060 7248.3757
141.0029 3551.1004
144.1022 7948.2580
156.7722 510.2311
176.9579 1309.1405
194.1191 1047.7087
195.1051 1269.3843
195.1391 734.1437
195.9124 809.1418
218.4300 605.9214
229.1432 15903.4966
245.3840 573.5563
251.6183 558.1011
263.0912 552.6379
288.2172 31791.7193

Name: UMETA00658 (Glycocholic acid)
Compound Id: UMETA00658
Precursor_type: [M+H]+
PrecursorMZ: 466.3159
Comment: 7.47_465.3086n
Formula: C26H43NO6
Num Peaks: 44
50.7473 558.5280
51.1267 615.8007
52.6058 620.5634
53.2593 613.5813
53.5450 600.9983
58.1619 619.6326
61.0604 636.4597
67.0542 3323.5291
69.8932 625.8475
69.9016 9194.8740
72.6374 491.4707
74.9278 592.5770
79.0543 4491.6065
81.0701 2201.1038
82.1716 510.9455
91.0540 10564.1787
97.1967 2737.6275
105.0450 637.3980
105.0698 6601.1226
106.2959 626.1894
113.3243 631.5734
115.0541 662.8027
117.0700 1189.4244
119.0852 1555.8494
128.0616 2685.4274
131.0850 1249.4644
133.0594 543.0811
135.2284 554.8749
141.0695 1972.8077
142.0771 1095.6064
143.0851 701.8367
149.2449 522.2000
155.0861 1935.1166
194.1163 2301.4456
195.1379 4150.0300
195.9126 607.5470
196.0897 1448.9682
217.2698 504.4700
221.5035 544.6460
233.4462 569.5005
245.7563 490.2050
272.1684 583.3758
407.8266 640.0869
413.0569 556.9574

Name: UMETA00270 (C10:1 | Decenoylcarnitine)
Compound Id: UMETA00270
Precursor_type: [M+H]+
PrecursorMZ: 314.2320
Comment: 7.86_314.2320m/z
Formula: C17H31NO4
Num Peaks: 41
52.1057 740.5045
55.0547 2038.3438
57.0339 6599.8835
57.1791 580.0734
58.0654 1335.8374
58.4343 577.1321
60.0811 32026.9212
62.0205 562.4166
67.0546 3386.6316
69.0701 12636.7974
69.8883 4237.6063
71.7075 2590.6268
79.0544 2111.5032
81.0702 946.5655
83.0854 842.5206
84.0809 2893.6821
85.0285 455264.8896
89.0561 573.5173
93.0702 2339.0005
95.0860 739.3609
97.0649 851.6904
97.1978 1933.2421
107.0855 2564.9479
113.0512 659.4445
115.0167 539.9331
115.3872 551.2584
120.0810 595.6105
127.6725 655.0783
135.1170 8685.8985
144.1021 8784.5892
153.1275 4747.9441
181.5341 573.6488
194.1180 2006.7848
195.1039 747.3835
195.1381 974.2550
196.0909 1406.4666
196.4226 611.5287
233.7205 632.6016
255.1599 11975.6302
271.7336 644.8761
314.2326 27537.2815

Name: Unknown (7.91_171.1379m/z)
Charge: 1+
PrecursorMZ: 171.1379
Comment: 7.91_171.1379m/z
Num Peaks: 50
52.7698 594.4487
55.0545 19867.2227
55.5401 584.0843
57.0703 4100.0343
59.0495 758.5208
62.7330 627.5484
63.6973 564.7087
67.0547 682.0362
67.3790 589.5747
69.0699 27835.9635
69.8938 9507.8679
71.0857 2210.1523
71.9294 1994.0663
72.0444 40724.2995
72.9372 1610.0568
73.7450 580.1222
74.0965 6866.9197
79.0542 904.6195
79.1336 551.2924
80.9454 2821.8881
81.0699 2143.8839
82.9419 6841.0417
83.0853 12419.1318
86.3161 627.6648
89.0709 21755.3366
89.9401 1580.6571
93.0698 2728.3784
94.0603 692.3772
95.0853 4777.7249
97.0646 4179.8940
97.1976 1770.0186
107.0857 2846.7933
111.0798 613.8553
111.1167 664.1235
116.9659 3172.1629
118.9628 11925.0941
123.5987 593.0507
125.1122 1697.8738
128.0624 678.8073
130.9661 634.7534
135.1175 2636.6832
145.0260 3194.2328
148.9768 6174.5456
151.0352 8600.4798
153.1275 1944.9281
167.1520 563.4693
169.0710 477.7536
171.0413 5921.7182
171.1001 2812.2572
171.1169 625.5068

Name: UMETA00269 (C10 | Decanoylcarnitine)
Compound Id: UMETA00269
Precursor_type: [M+H]+
PrecursorMZ: 316.2476
Comment: 8.17_316.2476m/z
Formula: C17H33NO4
Num Peaks: 50
52.0745 668.9604
54.2113 670.0790
55.8389 736.1153
56.6046 608.9141
57.0337 3581.5743
57.0702 7658.4697
60.0810 219996.3835
61.0843 1045.0003
64.9584 667.2797
66.3267 637.2917
67.0545 724.3182
68.7865 997.7264
69.8911 3696.0203
69.8991 8014.7409
71.0858 16290.1676
72.6128 609.0890
73.0922 863.3959
73.4473 614.9494
74.4411 944.8047
81.0699 17506.1094
85.0284 2094802.7852
85.1013 10092.9194
86.0366 1240.2255
90.2395 760.1741
95.0854 16583.9948
97.1948 3889.4492
109.2670 907.9688
136.9610 663.5663
137.1324 6569.1460
144.1019 52741.0805
144.1121 1242.6782
152.2611 884.8151
155.1430 133506.7767
173.1535 11553.9710
173.3392 640.1525
184.4387 709.5297
188.4977 908.9335
194.1184 1112.6322
194.8981 732.4818
195.1050 1750.4553
195.1376 3900.7033
196.0909 793.8277
198.4941 828.2603
210.4675 624.5706
229.2026 709.7770
257.1744 174443.1491
289.4129 658.7945
293.8601 1400.1289
304.4177 903.5350
316.2479 358660.9531

Name: UMETA00209 (Dihydroxycholanoic acid + gly)
Compound Id: UMETA00209
Precursor_type: [M+H]+
PrecursorMZ: 450.3209
Comment: 8.25_450.3209m/z
Formula: C26H43O5N
Num Peaks: 19
62.7810 1724.5917
63.8759 1889.6661
69.8077 1593.6605
69.9043 10144.7793
74.7345 1837.2775
86.5238 1762.4872
97.1943 3744.8958
146.8813 1804.3278
147.7228 1687.8329
172.0240 1767.9619
194.1176 3382.4844
195.0694 2125.4248
195.1378 7374.7578
195.1744 6600.8223
196.0911 3216.9639
196.2953 1938.0806
198.0120 1650.8700
217.9680 1681.9927
334.8028 1615.8102

Name: UMETA00273 (C12:1| Dodecenoylcarnitine)
Compound Id: UMETA00273
Precursor_type: [M+H]+
PrecursorMZ: 342.2633
Comment: 8.42_342.2633m/z
Formula: C19H35NO4
Num Peaks: 50
50.9674 617.6437
53.7565 567.0014
55.0547 5069.8985
55.9344 1691.4817
56.9136 623.5738
57.0338 3732.9097
57.0701 1507.7765
58.8423 636.1696
59.6249 564.3048
59.7323 664.5806
60.0810 15045.9372
62.4577 582.2714
67.0544 3100.3862
69.0698 1540.2547
69.8918 3201.4305
69.9006 6609.5951
72.9374 722.3424
76.9416 626.3846
79.0541 2596.1526
81.0697 5322.5500
83.0855 944.2607
84.0801 1474.8492
85.0284 214272.4163
85.0343 537.7634
85.0654 578.4085
85.4036 559.5446
86.3752 539.9614
88.9039 539.3320
95.0853 3059.7060
97.0645 1257.8471
97.1976 3212.0318
100.4279 544.6219
107.0854 1546.0884
108.3227 541.8534
109.1016 643.0481
128.1572 584.3764
140.8890 596.9390
144.1017 2746.4334
163.1483 1761.2451
181.1579 698.3703
195.0077 568.8307
195.1044 1133.2810
195.1383 1911.7438
195.1739 1729.2762
196.0050 690.3389
222.2409 750.6184
240.2306 660.0743
283.1883 1814.4146
325.5819 578.6749
342.2617 8573.0562

Name: Unknown (8.61_326.2426n)
Precursor_type: [M+ACN+H]+
PrecursorMZ: 368.2789
Comment: 8.61_326.2426n
Num Peaks: 50
55.0546 7308.0138
57.0338 6987.1693
57.0704 949.1196
60.0810 24733.8950
65.6410 1012.9513
67.0544 16653.8379
69.0700 8083.3087
69.9053 11815.2769
70.9580 3394.1002
72.9373 3149.3359
78.7333 974.2816
79.0542 6476.4330
81.0699 20292.4103
83.0857 5631.4614
85.0284 265147.5027
90.9476 2058.5295
91.0544 5362.6909
93.0699 4753.6626
95.0858 7385.8759
97.1944 1263.7584
100.1119 4241.8396
103.0390 981.4557
105.0696 2820.6022
107.0855 3023.5089
109.0647 1263.2321
109.1012 7130.4885
119.0857 3594.0952
121.1011 1025.6184
123.1169 3363.7432
125.0218 3496.7863
133.1013 1835.2729
142.9794 1184.3755
144.1021 6477.2145
147.1174 1294.8423
157.0496 1375.2838
163.1488 952.1457
179.6466 956.5828
189.1641 3519.2078
193.9302 950.1733
194.1173 1199.2583
194.1640 973.7716
195.1050 1317.1218
195.1227 1609.5813
195.1379 27130.9526
195.1748 12129.5898
196.0902 3563.1343
328.1290 943.6263
349.1461 960.5812
351.1620 2013.9791
368.2798 11979.1586

Name: UMETA00272 (C12 | Dodecanoylcarnitine)
Compound Id: UMETA00272
Precursor_type: [M+H]+
PrecursorMZ: 344.2789
Comment: 8.61_344.2789m/z
Formula: C19H37NO4
Num Peaks: 50
50.2650 564.9401
55.0547 1134.3333
57.0339 8109.2671
57.0703 8976.8353
60.0811 30674.6257
62.8416 539.9452
67.0547 2093.3735
67.1415 582.2181
69.0700 1995.3954
69.2249 546.7237
69.8944 3307.0993
69.9005 5798.4888
71.0857 2849.9982
73.0023 515.2029
75.8999 549.6658
80.6804 521.4895
81.0702 3608.7796
83.0857 840.2531
84.0808 2221.5028
85.0285 431282.1051
85.1013 883.9890
91.0545 716.5392
95.0857 5611.8067
97.1014 662.5029
97.1948 3039.0009
105.3003 524.5639
105.6342 602.8391
109.1012 2864.0895
111.0798 675.9434
121.0012 557.5341
137.0975 759.3658
144.1021 6334.5432
152.0132 608.0852
167.8950 609.6477
171.8279 589.6659
183.1747 7354.3540
194.1179 748.2548
195.1051 1869.2734
195.1235 1512.9035
195.1383 21573.5319
195.1750 11189.2740
195.7316 581.2115
196.0908 2819.6628
196.1411 714.7778
196.1690 635.3289
208.8118 677.2994
254.3426 694.3725
267.4668 572.5065
285.2057 8723.4237
344.2801 27470.9514

Name: Unknown (8.76_314.0852n)
Precursor_type: [M+Na]+
PrecursorMZ: 337.0743
Comment: 8.76_314.0852n
Num Peaks: 50
50.9114 570.3031
52.3562 574.6012
55.0546 5459.8308
55.9348 6704.2637
56.1705 546.8436
57.0337 717.2949
57.0703 726.3272
58.4341 674.4900
62.8536 634.7280
63.5179 557.6825
65.0391 626.3994
67.0545 3633.4756
69.0701 3756.5725
69.8951 2569.8078
69.9033 6353.9923
70.9579 9398.0573
72.9375 1726.7374
75.0263 1416.8660
77.8799 572.5859
79.0544 1811.8748
81.0701 4461.4471
83.0856 2314.2845
84.0209 508.9617
88.9685 1041.8396
90.9474 851.4705
91.6823 580.9293
93.0367 1373.5876
93.0701 1827.5653
95.0855 4019.4944
96.0805 581.9015
97.1009 1407.1102
97.1968 2784.6689
103.3632 483.8228
112.0905 637.8517
116.1138 530.8677
125.5265 516.1226
130.9794 664.1443
135.4126 590.2167
145.2391 541.2469
145.7321 555.4519
156.9943 564.1493
186.7076 590.6205
195.1033 2463.3508
195.1376 4868.3949
195.1745 19951.5463
195.3181 553.0245
196.1510 923.0357
246.3278 574.5135
296.0992 697.9183
299.3173 546.8478

Name: UMETA00276 (C14:1 | Tetradecenoylcarnitine)
Compound Id: UMETA00276
Precursor_type: [M+H]+
PrecursorMZ: 370.2945
Comment: 8.79_370.2945m/z
Formula: C21H39NO4
Num Peaks: 48
55.0547 10159.4629
55.9349 10336.9941
56.9430 1920.6857
57.0339 11788.7959
57.0703 2680.2937
58.0656 3910.4553
60.0811 46687.1641
61.5888 1752.5703
67.0545 15335.3486
69.0701 10350.3643
69.9042 11191.1152
70.9580 15109.7998
71.0858 2739.6252
79.0544 9340.1660
81.0701 9382.6328
83.0858 3637.1741
83.9756 1674.6648
84.0810 3343.1616
85.0285 561774.0391
88.9687 4099.2383
93.0700 7543.6753
95.0857 8727.8906
97.0650 3329.1006
97.1971 3363.9146
100.1124 2461.4138
107.0857 2106.4597
109.1013 6714.5127
120.3765 1602.7937
121.1014 10163.0371
125.0213 1806.0574
135.1170 8696.4863
140.9858 1641.5847
144.1023 11385.8965
169.4597 1649.1027
184.2559 1730.4027
191.1804 6898.6143
195.1390 3632.5776
195.1749 14640.8365
196.0912 4214.3613
209.1903 1867.7880
227.7223 1753.6384
229.7429 1842.4409
266.0958 2034.6255
291.7703 1888.0529
311.2220 7140.8848
355.9598 2094.3555
356.9590 3094.1304
370.2950 39976.7061

Name: Unknown (9.12_148.0376n)
Precursor_type: [M+H]+
PrecursorMZ: 149.0448
Comment: 9.12_148.0376n
Num Peaks: 50
52.3100 928.8737
54.9123 1593.5682
56.9428 1632.8311
61.0106 15912.1497
61.2049 1464.4263
62.9900 1048.4324
63.9424 4716.6898
65.0387 90139.1204
69.8906 5407.7686
69.9000 13881.2340
71.9293 2005.5699
72.9371 7735.6273
73.0468 79711.6935
74.0809 1787.6164
75.0261 54840.9531
75.3286 1511.5630
77.2876 1557.3566
79.0209 1556.4613
79.9487 2436.4669
80.9450 86080.7908
81.0701 1194.1592
90.9477 1191.3415
91.0574 57002.2943
93.0372 37705.7655
93.0697 949.4698
95.0494 988.3874
97.1967 6289.8640
98.9554 24351.6862
105.0326 3891.8458
108.9050 1231.6868
111.0438 8588.4399
111.4608 4141.6414
113.3342 1636.8343
113.9640 8373.8254
115.9700 4769.5028
116.9661 98219.9844
121.0287 59424.8817
121.0388 35994.4642
122.9692 957.5789
130.9664 1811.7093
131.9742 4780.9990
133.0140 6496.8669
138.9867 2528.2052
139.9818 30580.7318
141.8099 936.0812
141.9986 918.1534
144.9613 7602.4102
148.9774 1819.6262
149.0233 112441.5703
149.0444 17739.3929

Name: Unknown (9.12_148.0376n)
Precursor_type: [M+ACN+H]+
PrecursorMZ: 190.0714
Comment: 9.12_148.0376n
Num Peaks: 50
51.3551 608.7776
55.7808 565.1144
57.0699 615.9166
60.7518 620.3358
63.1306 575.5620
67.0544 2841.3265
69.0698 863.1002
69.8974 7698.7769
71.6986 1352.6445
72.9370 1008.9155
73.0470 2968.6611
75.0261 7279.2827
78.0008 2066.6847
79.0541 6861.4846
79.9488 4342.8710
80.9451 60956.0762
81.0698 2035.0042
91.0538 2125.9536
93.0365 4536.2484
93.0698 7102.5135
93.9556 837.1328
95.0853 2831.2966
97.1969 2747.5576
97.9594 660.4304
98.9556 17170.1888
105.0697 3128.9694
107.0855 5893.6620
113.9637 727.9817
115.9698 8737.1329
116.9661 81811.5807
116.9836 612.3007
117.9282 4492.2965
119.9444 1027.3655
121.1012 4619.3251
138.9857 2588.1246
139.9820 37887.3945
141.9974 553.9011
144.9607 10167.9520
145.1014 651.6917
147.9395 2836.6540
149.0443 1747.1828
149.0892 625.6042
151.0242 21120.1597
154.9688 620.8866
158.9797 564.8280
165.6769 563.3751
167.0550 4685.6097
167.9768 592.0426
169.0348 59669.4616
173.9182 11147.4964

Name: Unknown (9.12_177.0397m/z)
Charge: 1+
PrecursorMZ: 177.0397
Comment: 9.12_177.0397m/z
Num Peaks: 50
55.0545 9442.0589
55.9347 7029.8728
56.0497 6539.3402
58.0652 1994.9475
65.0387 5457.0858
67.0543 8435.3533
68.0496 100341.8542
69.0700 9249.1201
69.8873 3609.6447
69.8958 4464.9378
72.9374 3393.2429
73.0469 28194.5482
75.0263 14474.2334
79.0543 18686.9157
81.0698 10093.3241
83.0854 3112.3358
86.0600 143315.0885
88.0215 4109.5439
91.0541 25613.7874
93.0368 3487.6455
93.0700 24350.6178
94.8991 2439.6229
95.0490 1911.7663
95.0855 16636.4121
97.1966 2075.0295
98.9841 29798.4551
105.0448 2605.9557
105.0696 5191.5051
107.0854 26896.7025
109.1013 4868.5352
113.9635 2872.4972
114.0551 33693.0391
114.9714 1841.8604
119.0491 9027.2544
121.0283 4662.5233
121.0391 2166.9422
121.1012 32098.4245
132.0654 17253.5641
133.0134 2260.8546
135.1166 8500.4028
149.0234 35190.7865
149.0447 45327.7964
151.0240 94034.1185
153.9371 3190.7974
160.0604 17447.3411
167.0553 158831.2660
167.0699 2214.5946
169.0346 218603.8418
169.0497 3746.2852
177.0397 211835.3301

Name: UMETA00280 (C16 | Hexadecanoylcarnitine)
Compound Id: UMETA00280
Precursor_type: [M+H]+
PrecursorMZ: 400.3416
Comment: 9.27_400.3416m/z
Formula: C23H45NO4
Num Peaks: 19
57.0337 2763.3635
57.0702 2653.0364
60.0810 18158.6543
69.9071 11244.1201
70.2987 1771.0161
70.3436 1878.7524
71.3599 1620.0760
81.0698 2423.0935
85.0284 193964.2830
94.0144 2008.6838
95.0854 2152.0024
97.1937 2077.0813
97.1990 2484.5088
144.1021 3734.2261
181.0902 1696.3839
187.0411 1538.1423
195.1220 3628.8208
310.7513 1805.5505
400.3090 9989.2939

Name: UMETA00287 (c18:1 | Oleoylcarnitine)
Compound Id: UMETA00287
Precursor_type: [M+H]+
PrecursorMZ: 426.3572
Comment: 9.36_426.3572m/z
Formula: C25H47NO4
Num Peaks: 39
55.0545 2844.9728
57.0337 4579.6941
57.0700 1765.6593
59.9702 940.7590
60.0810 19749.8052
67.0543 3158.8727
69.0700 7742.2661
69.8973 5297.2974
69.9049 4144.0060
71.0854 942.2800
75.0259 976.0854
76.0773 834.6569
77.3432 812.9584
81.0699 2731.2976
83.0855 1725.1555
84.0806 1047.9373
85.0284 196053.5342
85.1011 1010.6713
88.0175 901.1991
89.6915 899.5679
91.0542 1323.1312
93.0695 1240.5509
95.0853 3233.7129
97.1968 3870.5924
97.9838 876.5010
100.6537 787.1034
108.5584 910.2269
112.3259 1081.9895
127.6460 788.8953
136.5577 876.8638
139.1292 877.3443
144.1018 1893.4623
165.9353 884.3172
186.5837 881.1250
195.1193 705.8478
195.1746 1143.4408
324.3243 1021.0758
351.0749 896.0272
426.3560 8371.1771

